%chk=complex.chk
%mem=8000Mb
%nproc=64
# opt oniom(b3lyp/genecp:amber=hardfirst)

Title Card Required

0 1 0 1 0 1
 N-N3-0.159200    0  -30.90900000   44.26400000   28.63600000 L
 C-CT-0.022100   0  -30.43900000   43.93200000   30.02200000 L
 C-C-0.612300     0  -29.22100000   43.03400000   29.94500000 L
 O-O--0.571300    0  -29.21900000   42.13800000   29.10800000 L
 C-CT-0.086500   0  -31.60600000   43.26400000   30.79800000 L
 C-CT-0.033400   0  -31.53500000   43.44900000   32.32500000 L
 S-S--0.277400   0  -33.11100000   43.03700000   33.12600000 L
 C-CT--0.034100  0  -32.66200000   43.39400000   34.83700000 L
 H-H-0.198400    0  -30.57200000   43.57000000   28.00700000 L
 H-HP-0.111600   0  -30.18100000   44.79200000   30.45800000 L
 H-HC-0.012500  0  -32.47300000   43.65400000   30.47300000 L
 H-HC-0.012500  0  -31.60200000   42.27900000   30.59900000 L
 H-H1-0.029200  0  -30.78400000   42.86400000   32.68300000 L
 H-H1-0.029200  0  -31.27200000   44.41300000   32.51900000 L
 H-H1-0.059700  0  -31.66700000   43.41900000   34.91800000 L
 H-H1-0.059700  0  -33.04400000   44.27900000   35.10000000 L
 H-H1-0.059700  0  -33.03000000   42.67900000   35.43000000 L
 H-H-0.198400    0  -31.90400000   44.27800000   28.62800000 L
 H-H-0.198400    0  -30.55300000   45.15800000   28.38100000 L
 N-N--0.415700    0  -28.16000000   43.28100000   30.74300000 L
 C-CT--0.025200  0  -26.93500000   42.48800000   30.68000000 L
 C-C-0.597300     0  -26.70400000   41.75300000   31.95700000 L
 O-O--0.567900    0  -27.30000000   42.07200000   32.99100000 L
 H-H-0.271900     0  -28.29800000   44.07800000   31.39600000 L
 H-H1-0.069800  0  -27.00700000   41.83500000   29.91100000 L
 H-H1-0.069800  0  -26.15700000   43.10300000   30.48800000 L
 N-N--0.415700    0  -25.80900000   40.75500000   31.93400000 L
 C-CT--0.058100  0  -25.31400000   40.12300000   33.13800000 L
 C-C-0.597300     0  -24.56100000   41.06800000   34.07000000 L
 O-O--0.567900    0  -23.78600000   41.92300000   33.66400000 L
 C-CT--0.007400  0  -24.42900000   38.91100000   32.82500000 L
 C-CC-0.186800   0  -25.19800000   37.76500000   32.27600000 L
 H-H-0.271900     0  -25.50700000   40.48100000   30.97100000 L
 H-H1-0.136000   0  -26.10800000   39.74300000   33.65400000 L
 H-HC-0.036700  0  -23.73300000   39.18300000   32.15600000 L
 H-HC-0.036700  0  -23.97300000   38.61900000   33.66900000 L
 N-NB--0.543200  0  -25.33400000   37.57900000   30.93000000 L
 C-CW--0.220700  0  -25.84200000   36.78300000   32.95500000 L
 C-CR-0.163500  0  -26.05300000   36.49700000   30.78200000 L
 N-NA--0.279500  0  -26.38300000   35.97900000   31.98700000 L
 H-H4-0.186200  0  -25.90600000   36.67400000   33.92900000 L
 H-H5-0.143500  0  -26.33500000   36.08800000   29.90700000 L
 H-H-0.333900   0  -26.92200000   35.16000000   32.12500000 L
 N-N--0.347900    0  -24.77700000   40.94500000   35.39500000 L
 C-CT--0.263700  0  -24.24100000   41.89000000   36.34900000 L
 C-C-0.734100     0  -23.00300000   41.29700000   36.94500000 L
 O-O--0.589400    0  -22.89800000   40.08600000   37.12200000 L
 C-CT--0.000700  0  -25.20200000   42.17500000   37.53100000 L
 C-CT-0.039000   0  -26.51600000   42.89000000   37.15500000 L
 C-CT-0.048600   0  -27.57700000   42.75300000   38.26000000 L
 N-N2--0.529500  0  -28.88700000   43.26200000   37.73900000 L
 C-CA-0.807600   0  -30.07000000   42.98700000   38.31000000 L
 N-N2--0.862700  0  -30.19500000   42.28800000   39.43000000 L
 N-N2--0.862700  0  -31.19500000   43.44200000   37.76000000 L
 H-H-0.274700     0  -25.35500000   40.12000000   35.65300000 L
 H-H1-0.156000   0  -24.00500000   42.73600000   35.87100000 L
 H-HC-0.032700  0  -25.44000000   41.30300000   37.95200000 L
 H-HC-0.032700  0  -24.72100000   42.75000000   38.18800000 L
 H-HC-0.028500  0  -26.33500000   43.85700000   37.02000000 L
 H-HC-0.028500  0  -26.88200000   42.48500000   36.32500000 L
 H-H1-0.068700  0  -27.67200000   41.80600000   38.48300000 L
 H-H1-0.068700  0  -27.30400000   43.30400000   39.02100000 L
 H-H-0.345600    0  -28.86700000   43.83300000   36.92600000 L
 H-H-0.447800  0  -29.36000000   41.96200000   39.88800000 L
 H-H-0.447800  0  -31.08900000   42.09100000   39.81000000 L
 H-H-0.447800  0  -31.14400000   44.00400000   36.93200000 L
 H-H-0.447800  0  -32.07600000   43.22600000   38.16900000 L
 N-N--0.415700    0  -22.05500000   42.16100000   37.32200000 L
 C-CT--0.038900  0  -20.90900000   41.77600000   38.11000000 L
 C-C-0.597300     0  -21.05600000   42.53500000   39.40000000 L
 O-O--0.567900    0  -21.84000000   43.47600000   39.48500000 L
 C-CT-0.365400   0  -19.54100000   42.02200000   37.46700000 L
 O-OH--0.676100  0  -19.28800000   43.38900000   37.18400000 L
 C-CT--0.243800  0  -19.46400000   41.25200000   36.14200000 L
 H-H-0.271900     0  -22.22500000   43.14200000   36.99000000 L
 H-H1-0.100700   0  -20.96000000   40.80800000   38.30100000 L
 H-H1-0.004300   0  -18.80500000   41.68800000   38.11800000 L
 H-HC-0.064200  0  -20.22500000   41.52500000   35.55300000 L
 H-HC-0.064200  0  -18.59800000   41.45900000   35.68500000 L
 H-HC-0.064200  0  -19.51800000   40.27000000   36.32300000 L
 H-HO-0.410200  0  -20.14000000   43.86400000   36.92900000 L
 N-N--0.415700    0  -20.32400000   42.13600000   40.45800000 L
 C-CT--0.051800  0  -20.33000000   42.78700000   41.76600000 L
 C-C-0.597300     0  -19.89300000   44.24200000   41.68100000 L
 O-O--0.567900    0  -20.38800000   45.12300000   42.39100000 L
 C-CT--0.110200  0  -19.41400000   41.98700000   42.73200000 L
 C-CT-0.353100   0  -19.42700000   42.40800000   44.22000000 L
 C-CT--0.412100  0  -20.82400000   42.28800000   44.84600000 L
 C-CT--0.412100  0  -18.42300000   41.57000000   45.03500000 L
 H-H-0.271900     0  -19.72900000   41.28700000   40.25000000 L
 H-H1-0.092200   0  -21.27100000   42.75700000   42.13300000 L
 H-HC-0.045700  0  -19.69800000   41.03300000   42.69300000 L
 H-HC-0.045700  0  -18.47900000   42.08200000   42.40600000 L
 H-HC--0.036100  0  -19.11600000   43.36000000   44.28600000 L
 H-HC-0.100000  0  -21.12900000   41.33900000   44.78700000 L
 H-HC-0.100000  0  -20.78000000   42.57000000   45.80200000 L
 H-HC-0.100000  0  -21.45700000   42.87800000   44.34900000 L
 H-HC-0.100000  0  -17.50700000   41.71000000   44.66500000 L
 H-HC-0.100000  0  -18.45300000   41.86300000   45.98800000 L
 H-HC-0.100000  0  -18.67300000   40.60700000   44.96700000 L
 N-N--0.415700    0  -18.94600000   44.51100000   40.77000000 L
 C-CT-0.033700   0  -18.48100000   45.81900000   40.39600000 L
 C-C-0.597300     0  -19.46200000   46.65300000   39.57900000 L
 O-O--0.567900    0  -19.55000000   47.86300000   39.76600000 L
 C-CT--0.182500  0  -17.19400000   45.64000000   39.57400000 L
 H-H-0.271900     0  -18.55200000   43.61800000   40.32800000 L
 H-H1-0.082300   0  -18.25300000   46.34700000   41.24800000 L
 H-HC-0.060300  0  -17.24200000   44.77800000   39.07600000 L
 H-HC-0.060300  0  -17.10900000   46.39800000   38.93100000 L
 H-HC-0.060300  0  -16.41100000   45.63100000   40.19100000 L
 N-N--0.415700    0  -20.20300000   46.05000000   38.61700000 L
 C-CT--0.024900  0  -20.96400000   46.82300000   37.64000000 L
 C-C-0.597300     0  -22.22300000   47.45700000   38.19500000 L
 O-O--0.567900    0  -22.71000000   48.46500000   37.67500000 L
 C-CT-0.211700   0  -21.26400000   46.02900000   36.32400000 L
 O-OH--0.654600  0  -22.28600000   45.02900000   36.42400000 L
 H-H-0.271900     0  -20.17500000   45.01700000   38.64500000 L
 H-H1-0.084300   0  -20.36000000   47.57100000   37.29900000 L
 H-H1-0.035200  0  -21.53200000   46.69500000   35.61500000 L
 H-H1-0.035200  0  -20.40700000   45.58600000   36.02900000 L
 H-HO-0.427500   0  -22.68300000   44.87900000   35.52200000 L
 N-N--0.415700    0  -22.76600000   46.90400000   39.29000000 L
 C-CT--0.038900  0  -24.04300000   47.32200000   39.85700000 L
 C-C-0.597300     0  -24.12600000   47.12000000   41.37500000 L
 O-O--0.567900    0  -25.07100000   46.47700000   41.83300000 L
 C-CT-0.365400   0  -25.25300000   46.60600000   39.23700000 L
 O-OH--0.676100  0  -25.12800000   45.19300000   39.22700000 L
 C-CT--0.243800  0  -25.47300000   47.00700000   37.77400000 L
 H-H-0.271900     0  -22.18200000   46.13600000   39.70500000 L
 H-H1-0.100700   0  -24.17200000   48.31100000   39.66600000 L
 H-H1-0.004300   0  -26.09700000   46.85100000   39.78900000 L
 H-HC-0.064200  0  -26.11000000   46.36600000   37.34400000 L
 H-HC-0.064200  0  -25.85400000   47.93200000   37.73400000 L
 H-HC-0.064200  0  -24.59900000   46.98600000   37.28600000 L
 H-HO-0.410200  0  -24.16100000   44.92000000   39.31000000 L
 N-N--0.254800    0  -23.24000000   47.65500000   42.23100000 L
 C-CT--0.026600  0  -23.05600000   47.24900000   43.63300000 L
 C-C-0.589600     0  -24.30500000   47.31400000   44.48400000 L
 O-O--0.574800    0  -24.43900000   46.55600000   45.44000000 L
 C-CT--0.007000  0  -21.97300000   48.20100000   44.17200000 L
 C-CT-0.018900   0  -22.01900000   49.40700000   43.23300000 L
 C-CT-0.019200   0  -22.36200000   48.77000000   41.88900000 L
 H-H1-0.064100   0  -22.63900000   46.31300000   43.67200000 L
 H-HC-0.025300  0  -22.17900000   48.48400000   45.10700000 L
 H-HC-0.025300  0  -21.07200000   47.77300000   44.14000000 L
 H-HC-0.021300  0  -22.72600000   50.03400000   43.51900000 L
 H-HC-0.021300  0  -21.13600000   49.84700000   43.20200000 L
 H-H1-0.039100  0  -22.82900000   49.42900000   41.29400000 L
 H-H1-0.039100  0  -21.53000000   48.44800000   41.42700000 L
 N-N--0.415700    0  -25.24600000   48.20900000   44.14400000 L
 C-CT-0.033700   0  -26.47000000   48.40200000   44.87300000 L
 C-C-0.597300     0  -27.48200000   47.28500000   44.67900000 L
 O-O--0.567900    0  -28.46400000   47.20300000   45.41500000 L
 C-CT--0.182500  0  -27.12300000   49.71900000   44.42100000 L
 H-H-0.271900     0  -24.99400000   48.76100000   43.28000000 L
 H-H1-0.082300   0  -26.25600000   48.46700000   45.87000000 L
 H-HC-0.060300  0  -26.74900000   50.47000000   44.96000000 L
 H-HC-0.060300  0  -26.92700000   49.86500000   43.45400000 L
 H-HC-0.060300  0  -28.10800000   49.66000000   44.56100000 L
 N-N--0.415700    0  -27.28500000   46.39700000   43.69000000 L
 C-CT--0.051800  0  -28.22400000   45.34200000   43.38300000 L
 C-C-0.597300     0  -27.80300000   44.01800000   43.99000000 L
 O-O--0.567900    0  -28.45600000   42.99500000   43.77800000 L
 C-CT--0.110200  0  -28.37500000   45.20500000   41.84900000 L
 C-CT-0.353100   0  -28.85400000   46.49500000   41.14200000 L
 C-CT--0.412100  0  -29.00000000   46.27600000   39.62800000 L
 C-CT--0.412100  0  -30.18100000   47.01400000   41.71000000 L
 H-H-0.271900     0  -26.38900000   46.54500000   43.16800000 L
 H-H1-0.092200   0  -29.12900000   45.59200000   43.76200000 L
 H-HC-0.045700  0  -27.49200000   44.97700000   41.47800000 L
 H-HC-0.045700  0  -29.04400000   44.50600000   41.67200000 L
 H-HC--0.036100  0  -28.18600000   47.21800000   41.30700000 L
 H-HC-0.100000  0  -29.66800000   45.55300000   39.46500000 L
 H-HC-0.100000  0  -29.30900000   47.12400000   39.20300000 L
 H-HC-0.100000  0  -28.11600000   46.01100000   39.24900000 L
 H-HC-0.100000  0  -30.06600000   47.21600000   42.68100000 L
 H-HC-0.100000  0  -30.44500000   47.84400000   41.22200000 L
 H-HC-0.100000  0  -30.88500000   46.31500000   41.59200000 L
 N-N--0.415700    0  -26.72400000   43.99400000   44.78900000 L
 C-CT--0.027500  0  -26.20900000   42.78200000   45.38500000 L
 C-C-0.597300     0  -26.51700000   42.73200000   46.86600000 L
 O-O--0.567900    0  -26.40000000   43.70900000   47.61000000 L
 C-CT--0.005000  0  -24.68900000   42.62300000   45.14100000 L
 C-C*--0.141500  0  -24.33100000   42.47100000   43.66500000 L
 C-CW--0.163800  0  -24.17200000   43.45100000   42.73300000 L
 C-CB-0.124300  0  -24.10600000   41.23000000   42.98300000 L
 N-NA--0.341800  0  -23.90500000   42.90300000   41.49900000 L
 C-CN-0.138000  0  -23.84000000   41.53900000   41.62900000 L
 C-CA--0.238700  0  -24.12000000   39.91900000   43.41900000 L
 C-CA--0.260100  0  -23.56300000   40.53000000   40.71700000 L
 C-CA--0.197200  0  -23.85200000   38.90200000   42.49900000 L
 C-CA--0.113400  0  -23.55900000   39.20400000   41.16600000 L
 H-H-0.271900     0  -26.29300000   44.93900000   44.93700000 L
 H-H1-0.112300   0  -26.67500000   42.00000000   44.95000000 L
 H-HC-0.033900  0  -24.22500000   43.43000000   45.46800000 L
 H-HC-0.033900  0  -24.37400000   41.80800000   45.59900000 L
 H-H4-0.206200  0  -24.23900000   44.43300000   42.91400000 L
 H-H-0.341200   0  -23.77900000   43.41200000   40.65100000 L
 H-HA-0.170000  0  -24.31500000   39.68400000   44.36900000 L
 H-HA-0.157200  0  -23.37000000   40.74600000   39.75200000 L
 H-HA-0.144700  0  -23.87300000   37.95900000   42.80600000 L
 H-HA-0.141700  0  -23.34500000   38.47600000   40.52900000 L
 N-N--0.415700    0  -26.95100000   41.55000000   47.33200000 L
 C-CT-0.033700   0  -27.12700000   41.28700000   48.73600000 L
 C-C-0.597300     0  -26.17800000   40.18400000   49.13800000 L
 O-O--0.567900    0  -25.74800000   39.39700000   48.29800000 L
 C-CT--0.182500  0  -28.58300000   40.93100000   49.07300000 L
 H-H-0.271900     0  -27.14500000   40.84900000   46.57900000 L
 H-H1-0.082300   0  -26.90200000   42.11200000   49.25800000 L
 H-HC-0.060300  0  -28.60300000   40.05900000   49.55700000 L
 H-HC-0.060300  0  -28.97000000   41.64700000   49.65000000 L
 H-HC-0.060300  0  -29.10600000   40.86000000   48.22700000 L
 N-N--0.415700    0  -25.80000000   40.14400000   50.42900000 L
 C-CT--0.024900  0  -24.70900000   39.31700000   50.92100000 L
 C-C-0.597300     0  -25.21100000   38.27800000   51.89200000 L
 O-O--0.567900    0  -26.03800000   38.56900000   52.75100000 L
 C-CT-0.211700   0  -23.64900000   40.15600000   51.67900000 L
 O-OH--0.654600  0  -22.53600000   39.36100000   52.08700000 L
 H-H-0.271900     0  -26.37000000   40.77000000   51.05000000 L
 H-H1-0.084300   0  -24.30100000   38.83900000   50.13100000 L
 H-H1-0.035200  0  -23.32800000   40.87800000   51.07400000 L
 H-H1-0.035200  0  -24.07900000   40.55000000   52.48600000 L
 H-HO-0.427500   0  -22.82300000   38.40800000   52.16100000 L
 N-N--0.415700    0  -24.68900000   37.04300000   51.78100000 L
 C-CT--0.059700  0  -24.93500000   35.97200000   52.72700000 L
 C-C-0.597300     0  -23.60200000   35.64600000   53.39700000 L
 O-O--0.567900    0  -22.64400000   35.34800000   52.68000000 L
 C-CT-0.130300   0  -25.49400000   34.71600000   52.05400000 L
 C-CT--0.043000  0  -26.86200000   35.04500000   51.41000000 L
 C-CT--0.320400  0  -25.61100000   33.55200000   53.07100000 L
 C-CT--0.066000  0  -27.46100000   33.91000000   50.57000000 L
 H-H-0.271900     0  -24.07700000   36.92800000   50.93100000 L
 H-H1-0.086900   0  -25.52100000   36.34500000   53.43500000 L
 H-HC-0.018700   0  -24.87900000   34.44900000   51.32700000 L
 H-HC-0.023600  0  -27.50300000   35.27600000   52.13900000 L
 H-HC-0.023600  0  -26.74300000   35.84400000   50.82200000 L
 H-HC-0.088200  0  -25.94500000   32.74500000   52.59600000 L
 H-HC-0.088200  0  -24.71300000   33.37500000   53.45900000 L
 H-HC-0.088200  0  -26.24800000   33.81600000   53.78700000 L
 H-HC-0.018600  0  -27.59300000   33.11400000   51.15400000 L
 H-HC-0.018600  0  -28.33400000   34.21200000   50.19900000 L
 H-HC-0.018600  0  -26.83100000   33.69200000   49.83000000 L
 N-N--0.254800    0  -23.45400000   35.66300000   54.73000000 L
 C-CT--0.026600  0  -22.29600000   35.11300000   55.43600000 L
 C-C-0.589600     0  -22.00400000   33.67400000   55.04800000 L
 O-O--0.574800    0  -22.86400000   32.82100000   55.21800000 L
 C-CT--0.007000  0  -22.66600000   35.23100000   56.93200000 L
 C-CT-0.018900   0  -23.72000000   36.34000000   56.99500000 L
 C-CT-0.019200   0  -24.43400000   36.22700000   55.65000000 L
 H-H1-0.064100   0  -21.47900000   35.69800000   55.28800000 L
 H-HC-0.025300  0  -23.04800000   34.37300000   57.27200000 L
 H-HC-0.025300  0  -21.86800000   35.48200000   57.47700000 L
 H-HC-0.021300  0  -24.34500000   36.17200000   57.74400000 L
 H-HC-0.021300  0  -23.27900000   37.22200000   57.09000000 L
 H-H1-0.039100  0  -25.24300000   35.63000000   55.72900000 L
 H-H1-0.039100  0  -24.74500000   37.13500000   55.33700000 L
 N-N--0.415700    0  -20.78600000   33.38300000   54.55200000 L
 C-CT-0.021300   0  -20.52100000   32.09800000   53.93200000 L
 C-C-0.597300     0  -19.04700000   32.04500000   53.55900000 L
 O-O--0.567900    0  -18.67700000   32.56100000   52.50500000 L
 C-CT--0.123100  0  -21.36200000   31.87200000   52.63800000 L
 S-SH--0.311900  0  -21.26400000   30.17600000   51.97600000 L
 H-H-0.271900     0  -20.08900000   34.13700000   54.65400000 L
 H-H1-0.112400   0  -20.69900000   31.37900000   54.60000000 L
 H-H1-0.111200  0  -22.30900000   32.07000000   52.85700000 L
 H-H1-0.111200  0  -21.02300000   32.49900000   51.94700000 L
 H-HS-0.193300   0  -20.32000000   29.85900000   52.03300000 L
 N-N--0.254800    0  -18.15700000   31.48300000   54.36900000 L
 C-CT--0.026600  0  -16.76400000   31.28700000   53.99600000 L
 C-C-0.589600     0  -16.58000000   30.30800000   52.85300000 L
 O-O--0.574800    0  -17.42700000   29.45200000   52.61400000 L
 C-CT--0.007000  0  -16.09600000   30.80200000   55.29400000 L
 C-CT-0.018900   0  -17.22600000   30.17300000   56.10900000 L
 C-CT-0.019200   0  -18.44700000   30.99400000   55.71600000 L
 H-H1-0.064100   0  -16.32400000   32.18000000   53.77600000 L
 H-HC-0.025300  0  -15.39000000   30.12000000   55.10000000 L
 H-HC-0.025300  0  -15.69200000   31.56600000   55.79600000 L
 H-HC-0.021300  0  -17.34000000   29.22200000   55.85500000 L
 H-HC-0.021300  0  -17.03500000   30.26000000   57.07800000 L
 H-H1-0.039100  0  -19.27600000   30.42400000   55.72200000 L
 H-H1-0.039100  0  -18.58300000   31.75900000   56.35600000 L
 N-N--0.347900    0  -15.43700000   30.38800000   52.14300000 L
 C-CT--0.263700  0  -15.12500000   29.46300000   51.06300000 L
 C-C-0.734100     0  -14.88700000   28.03200000   51.50800000 L
 O-O--0.589400    0  -15.02600000   27.09000000   50.72700000 L
 C-CT--0.000700  0  -13.86800000   29.94500000   50.32700000 L
 C-CT-0.039000   0  -14.16000000   31.12700000   49.39100000 L
 C-CT-0.048600   0  -12.92500000   31.98800000   49.12600000 L
 N-N2--0.529500  0  -11.87500000   31.15900000   48.45400000 L
 C-CA-0.807600   0  -11.80700000   30.92800000   47.13800000 L
 N-N2--0.862700  0  -10.81000000   30.19700000   46.64400000 L
 N-N2--0.862700  0  -12.72100000   31.41400000   46.30600000 L
 H-H-0.274700     0  -14.80900000   31.16400000   52.43800000 L
 H-H1-0.156000   0  -15.90200000   29.47000000   50.39700000 L
 H-HC-0.032700  0  -13.20800000   30.24400000   50.99600000 L
 H-HC-0.032700  0  -13.52200000   29.20300000   49.77900000 L
 H-HC-0.028500  0  -14.48900000   30.77800000   48.51500000 L
 H-HC-0.028500  0  -14.85900000   31.70800000   49.80500000 L
 H-H1-0.068700  0  -13.17700000   32.72300000   48.52700000 L
 H-H1-0.068700  0  -12.57300000   32.30500000   49.98600000 L
 H-H-0.345600    0  -11.17300000   30.74900000   49.04500000 L
 H-H-0.447800  0  -10.12000000   29.79900000   47.23800000 L
 H-H-0.447800  0  -10.75600000   30.04400000   45.64900000 L
 H-H-0.447800  0  -13.48400000   31.94800000   46.68900000 L
 H-H-0.447800  0  -12.65600000   31.25500000   45.33100000 L
 N-N--0.415700    0  -14.56000000   27.83500000   52.79400000 L
 C-CT--0.024900  0  -14.51000000   26.54400000   53.46100000 L
 C-C-0.597300     0  -15.85300000   25.83800000   53.44600000 L
 O-O--0.567900    0  -15.92300000   24.61200000   53.29200000 L
 C-CT-0.211700   0  -14.00300000   26.68200000   54.92500000 L
 O-OH--0.654600  0  -14.84100000   27.53400000   55.71100000 L
 H-H-0.271900     0  -14.33200000   28.74200000   53.30000000 L
 H-H1-0.084300   0  -13.84600000   25.96100000   52.96500000 L
 H-H1-0.035200  0  -13.98500000   25.77500000   55.33700000 L
 H-H1-0.035200  0  -13.08300000   27.06400000   54.90200000 L
 H-HO-0.427500   0  -14.89500000   28.43000000   55.27700000 L
 N-N--0.516300    0  -16.95600000   26.59800000   53.56500000 L
 C-CT-0.039700   0  -18.29800000   26.07500000   53.53100000 L
 C-C-0.536600     0  -18.86300000   25.98000000   52.12700000 L
 O-O--0.581900    0  -19.70500000   25.11800000   51.87000000 L
 C-CT-0.056000   0  -19.22400000   26.96000000   54.40000000 L
 C-CT-0.013600   0  -19.03100000   26.72800000   55.91900000 L
 C-C-0.805400    0  -19.42500000   25.31200000   56.30700000 L
 O-O2--0.818800  0  -20.46800000   24.81800000   55.78900000 L
 O-O2--0.818800  0  -18.69400000   24.67600000   57.11300000 L
 H-H-0.293600     0  -16.73800000   27.62300000   53.68700000 L
 H-H1-0.110500   0  -18.31800000   25.15200000   53.96200000 L
 H-HC--0.017300  0  -19.00200000   27.89200000   54.21900000 L
 H-HC--0.017300  0  -20.14600000   26.72800000   54.18600000 L
 H-HC--0.042500  0  -18.08700000   26.84500000   56.11800000 L
 H-HC--0.042500  0  -19.61700000   27.34400000   56.39000000 L
 N-N--0.415700    0  -18.44400000   26.82900000   51.17000000 L
 C-CT--0.051800  0  -18.94900000   26.75200000   49.80800000 L
 C-C-0.597300     0  -17.96000000   27.25800000   48.78300000 L
 O-O--0.567900    0  -17.46500000   28.37700000   48.87900000 L
 C-CT--0.110200  0  -20.25100000   27.57900000   49.65300000 L
 C-CT-0.353100   0  -20.87600000   27.71000000   48.23900000 L
 C-CT--0.412100  0  -21.17800000   26.37300000   47.53800000 L
 C-CT--0.412100  0  -22.15300000   28.56500000   48.31900000 L
 H-H-0.271900     0  -17.74500000   27.52400000   51.49100000 L
 H-H1-0.092200   0  -19.16000000   25.78000000   49.60000000 L
 H-HC-0.045700  0  -20.94600000   27.16100000   50.24100000 L
 H-HC-0.045700  0  -20.06000000   28.50700000   49.97500000 L
 H-HC--0.036100  0  -20.24200000   28.24900000   47.65900000 L
 H-HC-0.100000  0  -21.82200000   25.85200000   48.09400000 L
 H-HC-0.100000  0  -21.57500000   26.55800000   46.64200000 L
 H-HC-0.100000  0  -20.32800000   25.86100000   47.43400000 L
 H-HC-0.100000  0  -21.91800000   29.47000000   48.66700000 L
 H-HC-0.100000  0  -22.54900000   28.64500000   47.40700000 L
 H-HC-0.100000  0  -22.80300000   28.12300000   48.93400000 L
 N-N--0.347900    0  -17.70500000   26.47900000   47.71800000 L
 C-CT--0.263700  0  -17.01000000   26.96800000   46.54900000 L
 C-C-0.734100     0  -17.88700000   26.79800000   45.33300000 L
 O-O--0.589400    0  -18.11400000   25.68700000   44.86800000 L
 C-CT--0.000700  0  -15.70600000   26.17400000   46.34400000 L
 C-CT-0.039000   0  -14.56800000   26.63000000   47.27300000 L
 C-CT-0.048600   0  -13.86500000   27.91400000   46.84200000 L
 N-N2--0.529500  0  -13.18800000   27.63900000   45.53200000 L
 C-CA-0.807600   0  -11.96500000   27.12300000   45.35300000 L
 N-N2--0.862700  0  -11.16800000   26.86500000   46.38400000 L
 N-N2--0.862700  0  -11.54300000   26.84300000   44.12600000 L
 H-H-0.274700     0  -18.05400000   25.50000000   47.81900000 L
 H-H1-0.156000   0  -16.81000000   27.94500000   46.67100000 L
 H-HC-0.032700  0  -15.88900000   25.22100000   46.53300000 L
 H-HC-0.032700  0  -15.40600000   26.30300000   45.41100000 L
 H-HC-0.028500  0  -14.94100000   26.77400000   48.19900000 L
 H-HC-0.028500  0  -13.87600000   25.89800000   47.32300000 L
 H-H1-0.068700  0  -14.53300000   28.60900000   46.70800000 L
 H-H1-0.068700  0  -13.18600000   28.13800000   47.50300000 L
 H-H-0.345600    0  -13.72200000   27.87200000   44.69700000 L
 H-H-0.447800  0  -11.48300000   27.03600000   47.31700000 L
 H-H-0.447800  0  -10.25000000   26.49700000   46.22700000 L
 H-H-0.447800  0  -12.14900000   27.00100000   43.34300000 L
 H-H-0.447800  0  -10.62600000   26.47500000   43.98100000 L
 N-N--0.415700    0  -18.38000000   27.91000000   44.75000000 L
 C-CT--0.051800  0  -19.26200000   27.90300000   43.59400000 L
 C-C-0.597300     0  -18.65400000   27.20900000   42.38000000 L
 O-O--0.567900    0  -19.33500000   26.45600000   41.67700000 L
 C-CT--0.110200  0  -19.62800000   29.35300000   43.19200000 L
 C-CT-0.353100   0  -20.47800000   30.14900000   44.20600000 L
 C-CT--0.412100  0  -20.52800000   31.63200000   43.79600000 L
 C-CT--0.412100  0  -21.90200000   29.58400000   44.34500000 L
 H-H-0.271900     0  -18.06000000   28.79800000   45.22000000 L
 H-H1-0.092200   0  -20.11700000   27.41300000   43.84300000 L
 H-HC-0.045700  0  -18.77900000   29.85300000   43.06200000 L
 H-HC-0.045700  0  -20.14200000   29.31000000   42.34400000 L
 H-HC--0.036100  0  -20.06300000   30.07200000   45.10500000 L
 H-HC-0.100000  0  -20.93700000   31.70500000   42.88900000 L
 H-HC-0.100000  0  -21.07900000   32.13400000   44.45800000 L
 H-HC-0.100000  0  -19.60000000   31.99700000   43.78100000 L
 H-HC-0.100000  0  -21.84900000   28.63800000   44.65700000 L
 H-HC-0.100000  0  -22.40700000   30.13200000   45.00900000 L
 H-HC-0.100000  0  -22.35700000   29.62300000   43.45700000 L
 N-N--0.516300    0  -17.33500000   27.39400000   42.16400000 L
 C-CT-0.038100   0  -16.55400000   26.83800000   41.08100000 L
 C-C-0.536600     0  -16.35600000   25.32900000   41.17500000 L
 O-O--0.581900    0  -16.02600000   24.67200000   40.18400000 L
 C-CT--0.030300  0  -15.17400000   27.56800000   40.98500000 L
 C-C-0.799400    0  -14.28700000   27.46300000   42.21300000 L
 O-O2--0.801400  0  -14.76200000   27.68000000   43.36000000 L
 O-O2--0.801400  0  -13.07300000   27.18300000   42.04000000 L
 H-H-0.293600     0  -16.89800000   28.02600000   42.91200000 L
 H-H1-0.088000   0  -17.06500000   27.01300000   40.21700000 L
 H-HC--0.012200  0  -14.69100000   27.17600000   40.19800000 L
 H-HC--0.012200  0  -15.36700000   28.53400000   40.80200000 L
 N-N--0.415700    0  -16.56800000   24.74600000   42.37200000 L
 C-CT--0.051800  0  -16.43700000   23.32400000   42.61300000 L
 C-C-0.597300     0  -17.76000000   22.64500000   42.91800000 L
 O-O--0.567900    0  -17.78900000   21.44300000   43.20000000 L
 C-CT--0.110200  0  -15.49600000   23.07900000   43.81200000 L
 C-CT-0.353100   0  -14.09000000   23.69700000   43.68700000 L
 C-CT--0.412100  0  -13.28500000   23.41700000   44.96600000 L
 C-CT--0.412100  0  -13.34100000   23.17900000   42.44900000 L
 H-H-0.271900     0  -16.84100000   25.43400000   43.12200000 L
 H-H1-0.092200   0  -16.04100000   22.89000000   41.78200000 L
 H-HC-0.045700  0  -15.92200000   23.47300000   44.61600000 L
 H-HC-0.045700  0  -15.38200000   22.10100000   43.91200000 L
 H-HC--0.036100  0  -14.17800000   24.67800000   43.56400000 L
 H-HC-0.100000  0  -13.20600000   22.43000000   45.09300000 L
 H-HC-0.100000  0  -12.37700000   23.82100000   44.87600000 L
 H-HC-0.100000  0  -13.75900000   23.82100000   45.74500000 L
 H-HC-0.100000  0  -13.86100000   23.41300000   41.63000000 L
 H-HC-0.100000  0  -12.43900000   23.60500000   42.41000000 L
 H-HC-0.100000  0  -13.24400000   22.18800000   42.51600000 L
 N-N--0.415700    0  -18.89300000   23.36800000   42.85000000 L
 C-CT--0.087500  0  -20.20600000   22.79500000   43.10700000 L
 C-C-0.597300     0  -21.12100000   22.95100000   41.91300000 L
 O-O--0.567900    0  -21.74800000   21.99700000   41.45700000 L
 C-CT-0.298500   0  -20.85900000   23.46200000   44.31100000 L
 C-CT--0.319200  0  -22.27800000   22.91000000   44.55600000 L
 C-CT--0.319200  0  -20.00400000   23.17900000   45.55800000 L
 H-H-0.271900     0  -18.74000000   24.36900000   42.59800000 L
 H-H1-0.096900   0  -20.08700000   21.80800000   43.28500000 L
 H-HC--0.029700  0  -20.96900000   24.43400000   44.11200000 L
 H-HC-0.079100  0  -22.94200000   23.63200000   44.37800000 L
 H-HC-0.079100  0  -22.43700000   22.14200000   43.94100000 L
 H-HC-0.079100  0  -22.34900000   22.60800000   45.50300000 L
 H-HC-0.079100  0  -20.12700000   22.22600000   45.82300000 L
 H-HC-0.079100  0  -19.04700000   23.35300000   45.33800000 L
 H-HC-0.079100  0  -20.30200000   23.78100000   46.29600000 L
 N-N--0.415700    0  -21.20900000   24.16600000   41.34100000 L
 C-CT--0.051800  0  -22.08000000   24.44000000   40.21200000 L
 C-C-0.597300     0  -21.78500000   23.70300000   38.89800000 L
 O-O--0.567900    0  -22.75400000   23.34800000   38.22700000 L
 C-CT--0.110200  0  -22.27500000   25.95800000   39.99900000 L
 C-CT-0.353100   0  -22.90900000   26.70800000   41.19700000 L
 C-CT--0.412100  0  -23.14600000   28.17500000   40.82100000 L
 C-CT--0.412100  0  -24.23200000   26.09400000   41.68700000 L
 H-H-0.271900     0  -20.59500000   24.88500000   41.78500000 L
 H-H1-0.092200   0  -23.04800000   24.20800000   40.48700000 L
 H-HC-0.045700  0  -21.38700000   26.35900000   39.84000000 L
 H-HC-0.045700  0  -22.87400000   26.08200000   39.22500000 L
 H-HC--0.036100  0  -22.28600000   26.66000000   41.96800000 L
 H-HC-0.100000  0  -23.76300000   28.21800000   40.03700000 L
 H-HC-0.100000  0  -23.55500000   28.65200000   41.59700000 L
 H-HC-0.100000  0  -22.27300000   28.60000000   40.58700000 L
 H-HC-0.100000  0  -24.06800000   25.15300000   41.97600000 L
 H-HC-0.100000  0  -24.57500000   26.63000000   42.45600000 L
 H-HC-0.100000  0  -24.89400000   26.10800000   40.94100000 L
 N-N--0.254800    0  -20.56000000   23.41300000   38.46100000 L
 C-CT--0.026600  0  -20.32800000   22.65900000   37.23900000 L
 C-C-0.589600     0  -20.07700000   21.19300000   37.55100000 L
 O-O--0.574800    0  -19.67400000   20.45500000   36.65800000 L
 C-CT--0.007000  0  -19.08000000   23.34600000   36.67000000 L
 C-CT-0.018900   0  -18.26500000   23.70900000   37.90700000 L
 C-CT-0.019200   0  -19.33600000   24.06300000   38.93100000 L
 H-H1-0.064100   0  -21.10000000   22.76100000   36.60000000 L