%nprocshared=16
%mem=2GB
%chk=complex.chk
# opt oniom(b3lyp/6-31g(d):amber=hardfirst)

Title Card Required

-16 1 0 1 0 1
 N-N3-0.159200     0  -43.25100000   19.06800000  116.55800000 L
 C-CT-0.022100    0  -42.50100000   18.63000000  115.33800000 L
 C-C-0.612300      0  -41.95600000   17.26100000  115.63500000 L
 O-O--0.571300     0  -41.29400000   17.11900000  116.64900000 L
 C-CT-0.086500    0  -41.35300000   19.64600000  115.10200000 L
 C-CT-0.033400    0  -40.57000000   19.45200000  113.78900000 L
 S-S--0.277400    0  -41.50700000   19.90900000  112.30200000 L
 C-CT--0.034100   0  -40.11000000   19.61000000  111.17700000 L
 H-H-0.198400     0  -43.87900000   19.79800000  116.30700000 L
 H-HP-0.111600    0  -43.15600000   18.56800000  114.60000000 L
 H-HC-0.012500   0  -41.74200000   20.57700000  115.10200000 L
 H-HC-0.012500   0  -40.70100000   19.57900000  115.86900000 L
 H-H1-0.029200   0  -39.70200000   19.99800000  113.85400000 L
 H-H1-0.029200   0  -40.26800000   18.47100000  113.74100000 L
 H-H1-0.059700   0  -39.25900000   19.75300000  111.67500000 L
 H-H1-0.059700   0  -40.15900000   18.67100000  110.84500000 L
 H-H1-0.059700   0  -40.17000000   20.24600000  110.41200000 L
 H-H-0.198400     0  -43.75900000   18.29200000  116.92100000 L
 H-H-0.198400     0  -42.60100000   19.39700000  117.23700000 L
 N-N--0.415700     0  -42.30000000   16.22600000  114.84000000 L
 C-CT-0.033700    0  -41.89100000   14.87200000  115.16300000 L
 C-C-0.597300      0  -40.39400000   14.61300000  114.97300000 L
 O-O--0.567900     0  -39.80300000   15.00000000  113.96300000 L
 C-CT--0.182500   0  -42.73800000   13.86100000  114.36500000 L
 H-H-0.271900      0  -42.86000000   16.48700000  114.01400000 L
 H-H1-0.082300    0  -42.12300000   14.68200000  116.13800000 L
 H-HC-0.060300   0  -43.67800000   14.18900000  114.32000000 L
 H-HC-0.060300   0  -42.36300000   13.77800000  113.44600000 L
 H-HC-0.060300   0  -42.70800000   12.97800000  114.82600000 L
 N-N--0.415700     0  -39.76000000   13.94400000  115.95500000 L
 C-CT--0.038900   0  -38.33600000   13.61200000  115.95400000 L
 C-C-0.597300      0  -38.11100000   12.28900000  115.25500000 L
 O-O--0.567900     0  -38.66300000   11.25600000  115.64100000 L
 C-CT-0.365400    0  -37.73900000   13.47900000  117.35600000 L
 O-OH--0.676100  0  -37.83400000   14.70800000  118.05800000 L
 C-CT--0.243800  0  -36.24500000   13.10000000  117.34600000 L
 H-H-0.271900      0  -40.40300000   13.67300000  116.75000000 L
 H-H1-0.100700    0  -37.84500000   14.32900000  115.45100000 L
 H-H1-0.004300    0  -38.27000000   12.77000000  117.87500000 L
 H-HC-0.064200  0  -36.15700000   12.10500000  117.36400000 L
 H-HC-0.064200  0  -35.81800000   13.46000000  116.51700000 L
 H-HC-0.064200  0  -35.80000000   13.49100000  118.15000000 L
 H-HO-0.410200   0  -38.72000000   15.15400000  117.87800000 L
 N-N--0.415700     0  -37.25900000   12.27500000  114.21100000 L
 C-CT--0.051800   0  -36.97000000   11.09200000  113.42300000 L
 C-C-0.597300      0  -35.56900000   10.57700000  113.69700000 L
 O-O--0.567900     0  -34.60200000   11.34100000  113.68800000 L
 C-CT--0.110200   0  -37.01100000   11.39300000  111.90200000 L
 C-CT-0.353100    0  -38.27600000   12.10300000  111.38600000 L
 C-CT--0.412100  0  -38.16600000   12.32600000  109.87100000 L
 C-CT--0.412100  0  -39.54600000   11.30800000  111.70200000 L
 H-H-0.271900      0  -36.82100000   13.21300000  114.02200000 L
 H-H1-0.092200    0  -37.62900000   10.36900000  113.67100000 L
 H-HC-0.045700   0  -36.23500000   11.97700000  111.69200000 L
 H-HC-0.045700   0  -36.93900000   10.52700000  111.42400000 L
 H-HC--0.036100   0  -38.36200000   12.98200000  111.84200000 L
 H-HC-0.100000  0  -38.07100000   11.44300000  109.41600000 L
 H-HC-0.100000  0  -38.99000000   12.78600000  109.54700000 L
 H-HC-0.100000  0  -37.36600000   12.89200000  109.68000000 L
 H-HC-0.100000  0  -39.62900000   11.19800000  112.69200000 L
 H-HC-0.100000  0  -40.34000000   11.80200000  111.35100000 L
 H-HC-0.100000  0  -39.49000000   10.41000000  111.26700000 L
 N-N--0.347900     0  -35.41100000    9.25800000  113.92500000 L
 C-CT--0.240000   0  -34.10100000    8.64300000  114.05000000 L
 C-C-0.734100      0  -33.97700000    7.48000000  113.08200000 L
 O-O--0.589400     0  -34.92400000    6.72600000  112.86000000 L
 C-CT--0.009400   0  -33.79300000    8.17900000  115.49700000 L
 C-CT-0.018700    0  -33.98100000    9.31000000  116.52200000 L
 C-CT--0.047900   0  -33.26000000    9.05900000  117.85500000 L
 C-CT--0.014300   0  -33.54600000   10.15400000  118.89200000 L
 N-N3--0.385400   0  -32.43900000   10.25300000  119.85700000 L
 H-H-0.274700      0  -36.30700000    8.73300000  114.00100000 L
 H-H1-0.142600    0  -33.39600000    9.32500000  113.82900000 L
 H-HC-0.036200   0  -34.41400000    7.44700000  115.72300000 L
 H-HC-0.036200   0  -32.85300000    7.88200000  115.53000000 L
 H-HC-0.010300   0  -33.63100000   10.16600000  116.12500000 L
 H-HC-0.010300   0  -34.96400000    9.42000000  116.70500000 L
 H-HC-0.062100   0  -33.56900000    8.18700000  118.22500000 L
 H-HC-0.062100   0  -32.27900000    9.03300000  117.68800000 L
 H-HP-0.113500   0  -33.65700000   11.02200000  118.41100000 L
 H-HP-0.113500   0  -34.39300000    9.92300000  119.36800000 L
 H-H-0.340000    0  -32.01900000    9.35200000  119.98600000 L
 H-H-0.340000    0  -31.74700000   10.89200000  119.51500000 L
 H-H-0.340000    0  -32.78500000   10.58300000  120.73800000 L
 N-N--0.415700     0  -32.79600000    7.31200000  112.46100000 L
 C-CT--0.087500   0  -32.52200000    6.21700000  111.54400000 L
 C-C-0.597300      0  -31.38200000    5.40700000  112.11900000 L
 O-O--0.567900     0  -30.28800000    5.91500000  112.36500000 L
 C-CT-0.298500    0  -32.14500000    6.70100000  110.15100000 L
 C-CT--0.319200  0  -31.78300000    5.51900000  109.22700000 L
 C-CT--0.319200  0  -33.33800000    7.45700000  109.54400000 L
 H-H-0.271900      0  -32.08900000    8.04900000  112.70200000 L
 H-H1-0.096900    0  -33.33000000    5.63500000  111.50100000 L
 H-HC--0.029700   0  -31.32100000    7.26000000  110.22200000 L
 H-HC-0.079100  0  -31.08300000    5.81500000  108.58300000 L
 H-HC-0.079100  0  -31.43900000    4.76700000  109.78300000 L
 H-HC-0.079100  0  -32.60000000    5.23200000  108.73400000 L
 H-HC-0.079100  0  -34.10000000    7.42600000  110.18700000 L
 H-HC-0.079100  0  -33.06900000    8.40300000  109.37700000 L
 H-HC-0.079100  0  -33.59500000    7.01800000  108.68600000 L
 N-N--0.415700     0  -31.62200000    4.10800000  112.36700000 L
 C-CT--0.059700   0  -30.70700000    3.24500000  113.08400000 L
 C-C-0.597300      0  -30.23800000    2.14800000  112.16200000 L
 O-O--0.567900     0  -31.02800000    1.36600000  111.63700000 L
 C-CT-0.130300    0  -31.33800000    2.60900000  114.32000000 L
 C-CT--0.043000  0  -32.03000000    3.69800000  115.17200000 L
 C-CT--0.320400  0  -30.24700000    1.86000000  115.12000000 L
 C-CT--0.066000  0  -32.61200000    3.18800000  116.49500000 L
 H-H-0.271900      0  -32.54600000    3.77700000  111.98700000 L
 H-H1-0.086900    0  -29.90500000    3.80200000  113.30400000 L
 H-HC-0.018700    0  -32.03800000    1.97200000  114.02600000 L
 H-HC-0.023600  0  -31.36300000    4.41200000  115.37000000 L
 H-HC-0.023600  0  -32.77100000    4.09000000  114.63100000 L
 H-HC-0.088200  0  -30.66800000    1.42500000  115.90900000 L
 H-HC-0.088200  0  -29.83200000    1.17300000  114.53300000 L
 H-HC-0.088200  0  -29.56000000    2.51500000  115.41700000 L
 H-HC-0.018600  0  -31.87500000    2.80500000  117.04400000 L
 H-HC-0.018600  0  -33.03500000    3.95100000  116.97500000 L
 H-HC-0.018600  0  -33.29200000    2.48800000  116.29800000 L
 N-N--0.415700    0  -28.91300000    2.06200000  111.94400000 L
 C-CT--0.025200  0  -28.31600000    1.01800000  111.12700000 L
 C-C-0.597300     0  -27.77700000   -0.05700000  112.00700000 L
 O-O--0.567900    0  -26.94500000    0.19700000  112.86700000 L
 H-H-0.271900     0  -28.35900000    2.81200000  112.41500000 L
 H-H1-0.069800  0  -29.01400000    0.64200000  110.50900000 L
 H-H1-0.069800  0  -27.57800000    1.41400000  110.57200000 L
 N-N--0.415700    0  -28.24000000   -1.30400000  111.80200000 L
 C-CT--0.087500  0  -27.84200000   -2.42500000  112.63500000 L
 C-C-0.597300     0  -27.08000000   -3.43900000  111.80100000 L
 O-O--0.567900    0  -27.55600000   -3.97200000  110.80300000 L
 C-CT-0.298500   0  -29.02500000   -3.10900000  113.30700000 L
 C-CT--0.319200  0  -28.52700000   -4.16200000  114.31600000 L
 C-CT--0.319200  0  -29.89200000   -2.06700000  114.04300000 L
 H-H-0.271900     0  -28.90000000   -1.38400000  111.00100000 L
 H-H1-0.096900   0  -27.22500000   -2.08400000  113.35000000 L
 H-HC--0.029700  0  -29.53600000   -3.60600000  112.61500000 L
 H-HC-0.079100  0  -28.92300000   -5.04700000  114.08400000 L
 H-HC-0.079100  0  -27.53300000   -4.21200000  114.26900000 L
 H-HC-0.079100  0  -28.81100000   -3.89300000  115.23300000 L
 H-HC-0.079100  0  -30.85200000   -2.29100000  113.89900000 L
 H-HC-0.079100  0  -29.67400000   -2.09800000  115.01500000 L
 H-HC-0.079100  0  -29.68900000   -1.16400000  113.67300000 L
 N-N--0.415700    0  -25.82400000   -3.73300000  112.20300000 L
 C-CT--0.025200  0  -24.92600000   -4.59800000  111.44100000 L
 C-C-0.597300     0  -24.44400000   -4.01900000  110.12800000 L
 O-O--0.567900    0  -24.76900000   -2.89200000  109.76400000 L
 H-H-0.271900     0  -25.55800000   -3.28400000  113.10800000 L
 H-H1-0.069800  0  -24.11600000   -4.82900000  112.02500000 L
 H-H1-0.069800  0  -25.39900000   -5.48900000  111.26300000 L
 N-N--0.415700    0  -23.60700000   -4.77500000  109.38100000 L
 C-CT--0.025200  0  -22.96100000   -4.31600000  108.14300000 L
 C-C-0.597300     0  -23.83100000   -3.64600000  107.10900000 L
 O-O--0.567900    0  -23.62500000   -2.47700000  106.79400000 L
 H-H-0.271900     0  -23.45800000   -5.73900000  109.77400000 L
 H-H1-0.069800  0  -22.18700000   -3.67700000  108.40100000 L
 H-H1-0.069800  0  -22.48200000   -5.12600000  107.71000000 L
 N-N--0.415700    0  -24.85900000   -4.34900000  106.58600000 L
 C-CT--0.025200  0  -25.71900000   -3.80900000  105.53100000 L
 C-C-0.597300     0  -26.56700000   -2.64600000  105.96300000 L
 O-O--0.567900    0  -26.80900000   -1.72100000  105.19700000 L
 H-H-0.271900     0  -24.97900000   -5.29500000  106.99800000 L
 H-H1-0.069800  0  -25.13200000   -3.53100000  104.74200000 L
 H-H1-0.069800  0  -26.31900000   -4.56000000  105.18300000 L
 N-N--0.415700    0  -26.99700000   -2.61800000  107.24200000 L
 C-CT--0.025200  0  -27.78900000   -1.50200000  107.74300000 L
 C-C-0.597300     0  -26.96300000   -0.26700000  107.92600000 L
 O-O--0.567900    0  -27.37500000    0.84600000  107.61800000 L
 H-H-0.271900     0  -26.71900000   -3.43500000  107.80700000 L
 H-H1-0.069800  0  -28.54500000   -1.31700000  107.09300000 L
 H-H1-0.069800  0  -28.21100000   -1.76800000  108.62600000 L
 N-N--0.415700    0  -25.72100000   -0.44200000  108.40500000 L
 C-CT-0.014300   0  -24.76100000    0.63800000  108.47800000 L
 C-C-0.597300     0  -24.32000000    1.13100000  107.10600000 L
 O-O--0.567900    0  -24.09300000    2.32300000  106.92700000 L
 C-CT--0.204100  0  -23.54700000    0.26100000  109.35600000 L
 C-C-0.713000    0  -23.95200000    0.40400000  110.82000000 L
 H-H-0.271900     0  -25.52100000   -1.41800000  108.71400000 L
 H-H1-0.104800   0  -25.21800000    1.41900000  108.93700000 L
 H-HC-0.079700  0  -23.31600000   -0.67100000  109.18100000 L
 H-HC-0.079700  0  -22.82200000    0.88600000  109.16500000 L
 O-O--0.593100  0  -23.95400000    1.50000000  111.36000000 L
 N-N--0.919100  0  -24.31500000   -0.72800000  111.46500000 L
 H-H-0.419600  0  -24.29500000   -1.59100000  110.96100000 L
 H-H-0.419600  0  -24.59100000   -0.68900000  112.41300000 L
 N-N--0.415700    0  -24.22400000    0.25800000  106.07700000 L
 C-CT-0.014300   0  -23.97800000    0.68900000  104.70200000 L
 C-C-0.597300     0  -25.04500000    1.64600000  104.18000000 L
 O-O--0.567900    0  -24.71000000    2.70600000  103.64800000 L
 C-CT--0.204100  0  -23.87700000   -0.51200000  103.71600000 L
 C-C-0.713000    0  -22.67100000   -1.42800000  103.93900000 L
 H-H-0.271900     0  -24.34100000   -0.73700000  106.35600000 L
 H-H1-0.104800   0  -23.10100000    1.19600000  104.70200000 L
 H-HC-0.079700  0  -24.71200000   -1.05700000  103.81100000 L
 H-HC-0.079700  0  -23.82800000   -0.14100000  102.78700000 L
 O-O--0.593100  0  -22.66800000   -2.57900000  103.53000000 L
 N-N--0.919100  0  -21.59000000   -0.89900000  104.56500000 L
 H-H-0.419600  0  -21.64300000    0.06000000  104.85200000 L
 H-H-0.419600  0  -20.79200000   -1.44900000  104.72400000 L
 N-N--0.415700    0  -26.33700000    1.33700000  104.40200000 L
 C-CT-0.033700   0  -27.44400000    2.21400000  104.08200000 L
 C-C-0.597300     0  -27.42700000    3.54700000  104.83000000 L
 O-O--0.567900    0  -27.62500000    4.61500000  104.25200000 L
 C-CT--0.182500  0  -28.75500000    1.47400000  104.39700000 L
 H-H-0.271900     0  -26.46400000    0.38500000  104.83600000 L
 H-H1-0.082300   0  -27.42700000    2.41400000  103.08000000 L
 H-HC-0.060300  0  -29.03500000    0.95100000  103.59600000 L
 H-HC-0.060300  0  -28.60600000    0.85900000  105.16800000 L
 H-HC-0.060300  0  -29.45900000    2.14100000  104.62800000 L
 N-N--0.415700    0  -27.13800000    3.51800000  106.15000000 L
 C-CT--0.087500  0  -26.95100000    4.71900000  106.96100000 L
 C-C-0.597300     0  -25.78900000    5.58600000  106.51500000 L
 O-O--0.567900    0  -25.92500000    6.80700000  106.42200000 L
 C-CT-0.298500   0  -26.81500000    4.37200000  108.44000000 L
 C-CT--0.319200  0  -26.35200000    5.56200000  109.30600000 L
 C-CT--0.319200  0  -28.19000000    3.90200000  108.93300000 L
 H-H-0.271900     0  -27.06100000    2.54800000  106.53800000 L
 H-H1-0.096900   0  -27.80200000    5.27500000  106.89300000 L
 H-HC--0.029700  0  -26.10600000    3.66600000  108.53500000 L
 H-HC-0.079100  0  -25.36200000    5.51900000  109.41200000 L
 H-HC-0.079100  0  -26.60900000    6.41100000  108.85300000 L
 H-HC-0.079100  0  -26.79300000    5.50400000  110.19800000 L
 H-HC-0.079100  0  -28.08600000    3.48700000  109.83500000 L
 H-HC-0.079100  0  -28.80100000    4.68900000  108.98700000 L
 H-HC-0.079100  0  -28.55300000    3.23200000  108.28900000 L
 N-N--0.415700    0  -24.62600000    5.00200000  106.16700000 L
 C-CT-0.014300   0  -23.46800000    5.74500000  105.70100000 L
 C-C-0.597300     0  -23.75200000    6.54800000  104.43400000 L
 O-O--0.567900    0  -23.33200000    7.69100000  104.32500000 L
 C-CT--0.204100  0  -22.25100000    4.81100000  105.47700000 L
 C-C-0.713000    0  -21.70300000    4.31900000  106.81800000 L
 H-H-0.271900     0  -24.63800000    3.95800000  106.26500000 L
 H-H1-0.104800   0  -23.22800000    6.41400000  106.42400000 L
 H-HC-0.079700  0  -22.55000000    4.03500000  104.95300000 L
 H-HC-0.079700  0  -21.55000000    5.32400000  105.01700000 L
 O-O--0.593100  0  -21.82100000    4.93900000  107.86200000 L
 N-N--0.919100  0  -21.01900000    3.14400000  106.76900000 L
 H-H-0.419600  0  -20.90500000    2.68100000  105.90000000 L
 H-H-0.419600  0  -20.64200000    2.76800000  107.60800000 L
 N-N--0.347900    0  -24.52800000    5.99800000  103.47000000 L
 C-CT--0.263700  0  -24.98500000    6.77000000  102.31700000 L
 C-C-0.734100     0  -25.88300000    7.94600000  102.66900000 L
 O-O--0.589400    0  -25.77800000    9.03200000  102.10500000 L
 C-CT--0.000700  0  -25.81500000    5.91300000  101.34100000 L
 C-CT-0.039000   0  -25.04500000    4.74000000  100.72800000 L
 C-CT-0.048600   0  -25.86300000    4.10400000   99.60400000 L
 N-N2--0.529500  0  -25.32700000    2.75300000   99.30100000 L
 C-CA-0.807600   0  -24.15900000    2.45400000   98.72900000 L
 N-N2--0.862700  0  -23.30600000    3.38400000   98.30000000 L
 N-N2--0.862700  0  -23.84100000    1.17200000   98.60000000 L
 H-H-0.274700     0  -24.75900000    5.00100000  103.62800000 L
 H-H1-0.156000   0  -24.16600000    7.12500000  101.82200000 L
 H-HC-0.032700  0  -26.59200000    5.54400000  101.83800000 L
 H-HC-0.032700  0  -26.12300000    6.49900000  100.60000000 L
 H-HC-0.028500  0  -24.19500000    5.06800000  100.34500000 L
 H-HC-0.028500  0  -24.88600000    4.05300000  101.42100000 L
 H-H1-0.068700  0  -26.79400000    4.01900000   99.90700000 L
 H-H1-0.068700  0  -25.78100000    4.66900000   98.80300000 L
 H-H-0.345600    0  -25.92600000    1.96300000   99.56300000 L
 H-H-0.447800  0  -23.54200000    4.35100000   98.42900000 L
 H-H-0.447800  0  -22.45500000    3.12300000   97.86300000 L
 H-H-0.447800  0  -24.44300000    0.45300000   98.93600000 L
 H-H-0.447800  0  -22.97300000    0.91800000   98.15400000 L
 N-N--0.415700    0  -26.81500000    7.75400000  103.61900000 L
 C-CT--0.023700  0  -27.67100000    8.82000000  104.10700000 L
 C-C-0.597300     0  -26.92800000    9.94000000  104.82100000 L
 O-O--0.567900    0  -27.26900000   11.11100000  104.66400000 L
 C-CT-0.034200   0  -28.76900000    8.28300000  105.04400000 L
 C-CT-0.001800   0  -29.78500000    7.37100000  104.33500000 L
 S-S--0.273700   0  -31.19800000    6.89900000  105.36800000 L
 C-CT--0.053600  0  -32.01500000    8.51500000  105.38900000 L
 H-H-0.271900     0  -26.86200000    6.77000000  103.96900000 L
 H-H1-0.088000   0  -28.15400000    9.22900000  103.30600000 L
 H-HC-0.024100  0  -28.34000000    7.75800000  105.78300000 L
 H-HC-0.024100  0  -29.26700000    9.05800000  105.44100000 L
 H-H1-0.044000  0  -30.10200000    7.85200000  103.48200000 L
 H-H1-0.044000  0  -29.28400000    6.53700000  104.00000000 L
 H-H1-0.068400  0  -31.46500000    9.16500000  104.86900000 L
 H-H1-0.068400  0  -32.91900000    8.42800000  104.97600000 L
 H-H1-0.068400  0  -32.10200000    8.82400000  106.33400000 L
 N-N--0.415700    0  -25.88900000    9.60300000  105.60800000 L
 C-CT--0.059700  0  -24.95900000   10.55100000  106.20600000 L
 C-C-0.597300     0  -24.19100000   11.34200000  105.15100000 L
 O-O--0.567900    0  -24.04800000   12.55700000  105.27400000 L
 C-CT-0.130300   0  -23.99500000    9.82600000  107.14700000 L
 C-CT--0.043000  0  -24.76800000    9.27300000  108.36800000 L
 C-CT--0.320400  0  -22.84300000   10.75800000  107.60000000 L
 C-CT--0.066000  0  -23.95300000    8.26800000  109.18700000 L
 H-H-0.271900     0  -25.80900000    8.55800000  105.75600000 L
 H-H1-0.086900   0  -25.52000000   11.21900000  106.71200000 L
 H-HC-0.018700   0  -23.60600000    9.05200000  106.66500000 L
 H-HC-0.023600  0  -25.01800000   10.03500000  108.95100000 L
 H-HC-0.023600  0  -25.58700000    8.82100000  108.03600000 L
 H-HC-0.088200  0  -22.21900000   10.23900000  108.17400000 L
 H-HC-0.088200  0  -22.36800000   11.09500000  106.79400000 L
 H-HC-0.088200  0  -23.22900000   11.51700000  108.11300000 L
 H-HC-0.018600  0  -23.13000000    8.71800000  109.52200000 L
 H-HC-0.018600  0  -24.50600000    7.95300000  109.95300000 L
 H-HC-0.018600  0  -23.70900000    7.49900000  108.60300000 L
 N-N--0.516300    0  -23.71100000   10.67000000  104.08200000 L
 C-CT-0.038100   0  -22.99000000   11.26400000  102.96600000 L
 C-C-0.536600     0  -23.83500000   12.27900000  102.16700000 L
 O-O--0.581900    0  -23.41300000   13.39200000  101.87500000 L
 C-CT--0.030300  0  -22.50000000   10.08300000  102.07900000 L
 C-C-0.799400    0  -21.16100000   10.29400000  101.38500000 L
 O-O2--0.801400  0  -20.28600000   11.00900000  101.94000000 L
 O-O2--0.801400  0  -20.97200000    9.62500000  100.33700000 L
 H-H-0.293600     0  -23.91700000    9.62800000  104.13500000 L
 H-H1-0.088000   0  -22.20800000   11.78200000  103.35000000 L
 H-HC--0.012200  0  -22.43400000    9.27600000  102.67000000 L
 H-HC--0.012200  0  -23.20300000    9.92300000  101.38400000 L
 N-N--0.415700    0  -25.11000000   11.93100000  101.84900000 L
 C-CT-0.018800   0  -26.09000000   12.87200000  101.30500000 L
 C-C-0.597300     0  -26.49000000   14.00900000  102.23900000 L
 O-O--0.567900    0  -26.66600000   15.14500000  101.80400000 L
 C-CT--0.046200  0  -27.40700000   12.16700000  100.88200000 L
 C-CC--0.026600  0  -27.35900000   11.63300000   99.48600000 L
 H-H-0.271900     0  -25.32200000   10.92300000  102.03200000 L
 H-H1-0.088100   0  -25.69300000   13.28500000  100.45600000 L
 H-HC-0.040200  0  -27.57700000   11.40900000  101.51200000 L
 H-HC-0.040200  0  -28.15500000   12.82800000  100.94900000 L
 N-NA--0.381100  0  -27.34800000   10.27300000   99.24600000 L
 C-CV-0.129200  0  -27.26000000   12.31700000   98.31600000 L
 C-CR-0.205700  0  -27.21400000   10.15600000   97.94100000 L
 N-NB--0.572700  0  -27.16300000   11.36400000   97.32700000 L
 H-H-0.364900   0  -27.42400000    9.56100000   99.90600000 L
 H-H4-0.114700  0  -27.25700000   13.29700000   98.19800000 L
 H-H5-0.139200  0  -27.15300000    9.28000000   97.43700000 L
 N-N--0.415700    0  -26.69200000   13.71300000  103.53700000 L
 C-CT--0.025200  0  -27.11500000   14.68000000  104.53900000 L
 C-C-0.597300     0  -28.61200000   14.76800000  104.72000000 L
 O-O--0.567900    0  -29.37800000   15.01700000  103.79900000 L
 H-H-0.271900     0  -26.51200000   12.69900000  103.76200000 L
 H-H1-0.069800  0  -26.68100000   14.44300000  105.43400000 L
 H-H1-0.069800  0  -26.75100000   15.60100000  104.28600000 L
 N-N--0.415700    0  -29.06700000   14.62000000  105.97700000 L
 C-CT--0.023700  0  -30.45700000   14.78900000  106.36600000 L
 C-C-0.597300     0  -30.46500000   15.49300000  107.70700000 L
 O-O--0.567900    0  -30.57100000   14.87500000  108.75400000 L
 C-CT-0.034200   0  -31.18300000   13.43400000  106.53900000 L
 C-CT-0.001800   0  -31.58700000   12.74600000  105.22200000 L
 S-S--0.273700   0  -33.38600000   12.62500000  104.99400000 L
 C-CT--0.053600  0  -33.23100000   11.67400000  103.46400000 L
 H-H-0.271900     0  -28.30800000   14.36600000  106.66400000 L
 H-H1-0.088000   0  -30.90000000   15.38000000  105.70100000 L
 H-HC-0.024100  0  -30.58100000   12.80700000  107.04900000 L
 H-HC-0.024100  0  -32.01800000   13.58200000  107.08500000 L
 H-H1-0.044000  0  -31.15800000   13.26300000  104.44800000 L
 H-H1-0.044000  0  -31.15600000   11.81600000  105.20200000 L
 H-H1-0.068400  0  -33.86800000   10.90600000  103.49000000 L
 H-H1-0.068400  0  -33.44500000   12.26500000  102.68800000 L
 H-H1-0.068400  0  -32.29600000   11.33500000  103.38300000 L
 N-N--0.415700    0  -30.34700000   16.83500000  107.71300000 L
 C-CT-0.014300   0  -29.91100000   17.59000000  108.88500000 L
 C-C-0.597300     0  -30.86700000   17.57400000  110.08400000 L
 O-O--0.567900    0  -30.46800000   17.89900000  111.19300000 L
 C-CT--0.204100  0  -29.64800000   19.08100000  108.50900000 L
 C-C-0.713000    0  -28.33500000   19.29700000  107.75400000 L
 H-H-0.271900     0  -30.59600000   17.28400000  106.80300000 L
 H-H1-0.104800   0  -29.03500000   17.16600000  109.20400000 L
 H-HC-0.079700  0  -30.40100000   19.38700000  107.93500000 L
 H-HC-0.079700  0  -29.62200000   19.60700000  109.35300000 L
 O-O--0.593100  0  -27.42900000   19.96000000  108.24700000 L
 N-N--0.919100  0  -28.22300000   18.77400000  106.51100000 L
 H-H-0.419600  0  -29.01600000   18.27500000  106.14800000 L
 H-H-0.419600  0  -27.39700000   18.88600000  105.99600000 L
 N-N--0.415700    0  -32.15900000   17.21600000  109.91300000 L
 C-CT-0.014300   0  -33.09100000   17.12100000  111.03100000 L
 C-C-0.597300     0  -33.31200000   15.68400000  111.48900000 L
 O-O--0.567900    0  -34.17800000   15.42900000  112.32400000 L
 C-CT--0.204100  0  -34.48700000   17.67900000  110.63800000 L
 C-C-0.713000    0  -34.55100000   19.18300000  110.38300000 L
 H-H-0.271900     0  -32.41700000   17.01900000  108.92700000 L
 H-H1-0.104800   0  -32.67500000   17.61800000  111.80900000 L
 H-HC-0.079700  0  -34.78400000   17.20100000  109.80400000 L
 H-HC-0.079700  0  -35.12600000   17.45400000  111.38100000 L
 O-O--0.593100  0  -35.57900000   19.67500000  109.91900000 L
 N-N--0.919100  0  -33.48300000   19.95200000  110.68200000 L
 H-H-0.419600  0  -32.67900000   19.47100000  111.06300000 L
 H-H-0.419600  0  -33.49600000   20.91400000  110.53500000 L
 N-N--0.415700    0  -32.55800000   14.71700000  110.94100000 L
 C-CT--0.087500  0  -32.68800000   13.30600000  111.26200000 L
 C-C-0.597300     0  -31.42800000   12.86400000  111.97800000 L
 O-O--0.567900    0  -30.32700000   13.09000000  111.48500000 L
 C-CT-0.298500   0  -32.82400000   12.44400000  110.00600000 L
 C-CT--0.319200  0  -32.99500000   10.95700000  110.37800000 L
 C-CT--0.319200  0  -34.02100000   12.91400000  109.15600000 L
 H-H-0.271900     0  -31.85400000   15.08300000  110.24700000 L
 H-H1-0.096900   0  -33.45700000   13.19600000  111.88800000 L
 H-HC--0.029700  0  -31.97500000   12.50700000  109.49000000 L
 H-HC-0.079100  0  -32.23800000   10.43700000  109.99100000 L
 H-HC-0.079100  0  -32.99600000   10.87000000  111.37100000 L
 H-HC-0.079100  0  -33.85900000   10.62800000  110.00700000 L
 H-HC-0.079100  0  -34.86400000   12.67500000  109.63100000 L
 H-HC-0.079100  0  -33.96100000   13.90200000  109.03700000 L
 H-HC-0.079100  0  -33.98400000   12.45800000  108.27100000 L
 N-N--0.516300    0  -31.55100000   12.20300000  113.14700000 L
 C-CT-0.039700   0  -30.39300000   11.66700000  113.84700000 L
 C-C-0.536600     0  -30.05100000   10.27500000  113.33700000 L
 O-O--0.581900    0  -30.92000000    9.40700000  113.19400000 L
 C-CT-0.056000   0  -30.64400000   11.57500000  115.37300000 L
 C-CT-0.013600   0  -29.44100000   11.05100000  116.20600000 L
 C-C-0.805400    0  -29.77400000   10.86300000  117.68400000 L
 O-O2--0.818800  0  -30.76700000   11.44900000  118.18900000 L
 O-O2--0.818800  0  -29.08700000   10.04400000  118.34300000 L
 H-H-0.293600     0  -32.52600000   12.11700000  113.48700000 L
 H-H1-0.110500   0  -29.60300000   12.27700000  113.71300000 L
 H-HC--0.017300  0  -30.84700000   12.48000000  115.69800000 L
 H-HC--0.017300  0  -31.38800000   10.95100000  115.51700000 L
 H-HC--0.042500  0  -29.18700000   10.17800000  115.84100000 L
 H-HC--0.042500  0  -28.72400000   11.71500000  116.14100000 L
 N-N--0.415700    0  -28.76100000   10.01900000  113.05900000 L
 C-CT--0.002400  0  -28.28100000    8.73700000  112.59100000 L
 C-C-0.597300     0  -27.52100000    7.99400000  113.66800000 L
 O-O--0.567900    0  -26.50700000    8.44300000  114.20400000 L
 C-CT--0.034300  0  -27.32600000    8.87700000  111.38700000 L
 C-CA-0.011800   0  -28.06700000    9.39400000  110.20000000 L
 C-CA--0.125600  0  -28.88200000    8.53100000  109.45400000 L
 C-CA--0.125600  0  -27.95600000   10.73800000  109.81600000 L
 C-CA--0.170400  0  -29.59300000    9.00700000  108.35100000 L
 C-CA--0.170400  0  -28.65700000   11.21700000  108.70400000 L
 C-CA--0.107200  0  -29.47800000   10.35000000  107.97200000 L
 H-H-0.271900     0  -28.13100000   10.84800000  113.21600000 L
 H-H1-0.097800   0  -29.09400000    8.17900000  112.36900000 L
 H-HC-0.029500  0  -26.63800000    9.52000000  111.63200000 L
 H-HC-0.029500  0  -26.98300000    7.98900000  111.18100000 L
 H-HA-0.133000  0  -28.95600000    7.57700000  109.71000000 L
 H-HA-0.133000  0  -27.37600000   11.35300000  110.33800000 L
 H-HA-0.143000  0  -30.18400000    8.38300000  107.83300000 L
 H-HA-0.143000  0  -28.56700000   12.18400000  108.43400000 L
 H-HA-0.129700   0  -29.98200000   10.68600000  107.18100000 L
 N-N--0.415700    0  -27.99400000    6.77500000  113.97600000 L
 C-CT--0.059700  0  -27.42000000    5.92900000  115.00300000 L
 C-C-0.597300     0  -26.82800000    4.70200000  114.34000000 L
 O-O--0.567900    0  -27.49000000    3.98100000  113.59000000 L
 C-CT-0.130300   0  -28.44300000    5.50700000  116.05700000 L
 C-CT--0.043000  0  -29.12200000    6.75100000  116.68100000 L
 C-CT--0.320400  0  -27.74200000    4.66800000  117.15400000 L
 C-CT--0.066000  0  -30.31900000    6.43000000  117.58500000 L
 H-H-0.271900     0  -28.82500000    6.49300000  113.39700000 L
 H-H1-0.086900   0  -26.65800000    6.43800000  115.39700000 L
 H-HC-0.018700   0  -29.15300000    4.97200000  115.61300000 L
 H-HC-0.023600  0  -28.44000000    7.24400000  117.21500000 L
 H-HC-0.023600  0  -29.43600000    7.33700000  115.93700000 L
 H-HC-0.088200  0  -28.42300000    4.37500000  117.81700000 L
 H-HC-0.088200  0  -27.31500000    3.87700000  116.72900000 L
 H-HC-0.088200  0  -27.05400000    5.23200000  117.59700000 L
 H-HC-0.018600  0  -30.00900000    5.85300000  118.33500000 L
 H-HC-0.018600  0  -30.69100000    7.28300000  117.94000000 L
 H-HC-0.018600  0  -31.00800000    5.95300000  117.04800000 L
 N-N--0.415700    0  -25.54300000    4.42300000  114.60100000 L
 C-CT-0.033700   0  -24.85900000    3.26300000  114.07800000 L
 C-C-0.597300     0  -24.68700000    2.21200000  115.16200000 L
 O-O--0.567900    0  -24.05000000    2.45100000  116.19000000 L
 C-CT--0.182500  0  -23.48400000    3.69600000  113.53800000 L
 H-H-0.271900     0  -25.08100000    5.13200000  115.22500000 L
 H-H1-0.082300   0  -25.40700000    2.86500000  113.33200000 L
 H-HC-0.060300  0  -23.52700000    4.65500000  113.27000000 L
 H-HC-0.060300  0  -22.80000000    3.57400000  114.25300000 L
 H-HC-0.060300  0  -23.25300000    3.13400000  112.74800000 L
 N-N--0.415700    0  -25.26000000    1.01000000  114.97200000 L
 C-CT--0.059700  0  -25.19500000   -0.07400000  115.94000000 L
 C-C-0.597300     0  -24.48400000   -1.25300000  115.31600000 L
 O-O--0.567900    0  -24.89800000   -1.80000000  114.28700000 L
 C-CT-0.130300   0  -26.56800000   -0.51600000  116.44700000 L
 C-CT--0.043000  0  -27.27100000    0.69600000  117.10300000 L
 C-CT--0.320400  0  -26.40800000   -1.68700000  117.44700000 L