%chk=complex.chk
%mem=8000Mb
%nproc=20
# opt oniom(b3lyp/genecp:amber=hardfirst)

Title Card Required

4 1 0 1 0 1
 N-N3-0.184900     0  145.56700000   79.85800000  -32.60800000 L
 C-CT-0.056700    0  145.20200000   80.50200000  -33.92700000 L
 C-C-0.616300      0  145.80300000   81.87400000  -34.08500000 L
 O-O--0.572200     0  146.10600000   82.51300000  -33.07800000 L
 C-CT-0.259600    0  143.66500000   80.63500000  -34.03400000 L
 O-OH--0.671400   0  143.03900000   79.37800000  -33.75000000 L
 H-H-0.189800     0  146.55700000   79.84800000  -32.52500000 L
 H-HP-0.078200    0  145.56600000   79.89700000  -34.64800000 L
 H-H1-0.027300   0  143.35800000   81.30400000  -33.37400000 L
 H-H1-0.027300   0  143.43500000   80.90800000  -34.95600000 L
 H-H-0.189800     0  145.16400000   80.39100000  -31.87400000 L
 H-H-0.189800     0  145.20900000   78.93100000  -32.59900000 L
 H-HO-0.423900    0  142.24600000   79.26800000  -34.34300000 L
 N-N--0.415700     0  145.99900000   82.39000000  -35.32200000 L
 C-CT--0.024900   0  146.43600000   83.76500000  -35.56400000 L
 C-C-0.597300      0  145.51300000   84.79500000  -34.92400000 L
 O-O--0.567900     0  144.34900000   84.51500000  -34.60500000 L
 C-CT-0.211700    0  146.67200000   84.06500000  -37.07200000 L
 O-OH--0.654600   0  145.50300000   83.77300000  -37.84000000 L
 H-H-0.271900      0  145.80700000   81.70700000  -36.09200000 L
 H-H1-0.084300    0  147.35600000   83.87500000  -35.15400000 L
 H-H1-0.035200   0  146.89300000   85.02600000  -37.16800000 L
 H-H1-0.035200   0  147.42000000   83.49700000  -37.38900000 L
 H-HO-0.427500    0  144.97300000   83.06900000  -37.37400000 L
 N-N--0.415700     0  146.04200000   85.99000000  -34.61800000 L
 C-CT--0.087500   0  145.33000000   86.99200000  -33.85200000 L
 C-C-0.597300      0  144.78100000   88.02300000  -34.83100000 L
 O-O--0.567900     0  145.56600000   88.63000000  -35.56000000 L
 C-CT-0.298500    0  146.20600000   87.64600000  -32.79600000 L
 C-CT--0.319200  0  145.35600000   88.61100000  -31.94300000 L
 C-CT--0.319200  0  146.79200000   86.53700000  -31.89600000 L
 H-H-0.271900      0  147.01300000   86.12600000  -34.98500000 L
 H-H1-0.096900    0  144.55700000   86.55700000  -33.40000000 L
 H-HC--0.029700   0  146.88600000   88.20600000  -33.25200000 L
 H-HC-0.079100  0  144.39900000   88.51800000  -32.20600000 L
 H-HC-0.079100  0  145.46900000   88.37700000  -30.98100000 L
 H-HC-0.079100  0  145.66500000   89.54400000  -32.10600000 L
 H-HC-0.079100  0  146.34200000   85.67600000  -32.11600000 L
 H-HC-0.079100  0  147.77100000   86.46900000  -32.07000000 L
 H-HC-0.079100  0  146.62700000   86.77900000  -30.94400000 L
 N-N--0.254800     0  143.47300000   88.24300000  -34.94000000 L
 C-CT--0.026600   0  142.90200000   89.29700000  -35.76100000 L
 C-C-0.589600      0  143.27700000   90.66700000  -35.24100000 L
 O-O--0.574800     0  143.32900000   90.87000000  -34.03000000 L
 C-CT--0.007000   0  141.37500000   89.09300000  -35.66600000 L
 C-CT-0.018900    0  141.21200000   87.66000000  -35.16300000 L
 C-CT-0.019200    0  142.44700000   87.44000000  -34.30600000 L
 H-H1-0.064100    0  143.18100000   89.19000000  -36.72800000 L
 H-HC-0.025300   0  140.97100000   89.73500000  -35.01800000 L
 H-HC-0.025300   0  140.94600000   89.19700000  -36.56000000 L
 H-HC-0.021300   0  140.38300000   87.58200000  -34.62300000 L
 H-HC-0.021300   0  141.19200000   87.03100000  -35.93000000 L
 H-H1-0.039100   0  142.28100000   87.73900000  -33.36100000 L
 H-H1-0.039100   0  142.70100000   86.46600000  -34.29200000 L
 N-N--0.415700     0  143.54100000   91.63000000  -36.13900000 L
 C-CT--0.024900   0  143.78700000   93.01600000  -35.76300000 L
 C-C-0.597300      0  142.59300000   93.65200000  -35.07700000 L
 O-O--0.567900     0  141.45400000   93.47200000  -35.49900000 L
 C-CT-0.211700    0  144.15900000   93.88900000  -36.99400000 L
 O-OH--0.654600   0  144.38400000   95.27000000  -36.67800000 L
 H-H-0.271900      0  143.55300000   91.29300000  -37.12800000 L
 H-H1-0.084300    0  144.56400000   93.02900000  -35.11300000 L
 H-H1-0.035200   0  144.99200000   93.51400000  -37.40600000 L
 H-H1-0.035200   0  143.41100000   93.83000000  -37.65900000 L
 H-HO-0.427500    0  144.15000000   95.82700000  -37.47100000 L
 N-N--0.415700     0  142.85300000   94.45400000  -34.03000000 L
 C-CT--0.003100   0  141.86700000   95.22900000  -33.31500000 L
 C-C-0.597300      0  142.11700000   96.71400000  -33.52400000 L
 O-O--0.567900     0  141.53200000   97.54900000  -32.84600000 L
 C-CT--0.003600   0  141.95600000   94.92300000  -31.79900000 L
 C-CT--0.064500   0  143.31800000   95.28300000  -31.15700000 L
 C-C-0.695100     0  143.31700000   94.95900000  -29.66400000 L
 H-H-0.271900      0  143.88400000   94.46200000  -33.77200000 L
 H-H1-0.085000    0  140.96000000   95.01600000  -33.69400000 L
 H-HC-0.017100   0  141.25000000   95.44500000  -31.32600000 L
 H-HC-0.017100   0  141.80400000   93.94600000  -31.66100000 L
 H-HC-0.035200   0  144.02100000   94.74900000  -31.60000000 L
 H-HC-0.035200   0  143.47100000   96.25200000  -31.27500000 L
 O-O--0.608600   0  143.62800000   93.85700000  -29.24800000 L
 N-N--0.940700   0  142.94600000   95.96500000  -28.82900000 L
 H-H-0.425100   0  142.91200000   95.81100000  -27.84000000 L
 H-H-0.425100   0  142.71100000   96.86000000  -29.24100000 L
 N-N--0.347900     0  143.01900000   97.08500000  -34.46400000 L
 C-CT--0.240000   0  143.39000000   98.47500000  -34.68200000 L
 C-C-0.734100      0  142.28900000   99.30100000  -35.32200000 L
 O-O--0.589400     0  141.82400000   98.97800000  -36.41600000 L
 C-CT--0.009400   0  144.65200000   98.59500000  -35.57500000 L
 C-CT-0.018700    0  145.16700000  100.03700000  -35.73300000 L
 C-CT--0.047900   0  146.45300000  100.09900000  -36.57200000 L
 C-CT--0.014300   0  146.98600000  101.52500000  -36.75100000 L
 N-N3--0.385400   0  148.23200000  101.51700000  -37.55400000 L
 H-H-0.274700      0  143.41300000   96.28800000  -35.00500000 L
 H-H1-0.142600    0  143.62900000   98.89300000  -33.78400000 L
 H-HC-0.036200   0  145.37300000   98.05100000  -35.16200000 L
 H-HC-0.036200   0  144.42400000   98.24500000  -36.47700000 L
 H-HC-0.010300   0  144.46300000  100.58300000  -36.18500000 L
 H-HC-0.010300   0  145.35600000  100.41300000  -34.82800000 L
 H-HC-0.062100   0  147.15600000   99.55400000  -36.11700000 L
 H-HC-0.062100   0  146.26300000   99.71800000  -37.47500000 L
 H-HP-0.113500   0  146.29100000  102.06800000  -37.21600000 L
 H-HP-0.113500   0  147.17000000  101.91100000  -35.85000000 L
 H-H-0.340000    0  148.22900000  100.72700000  -38.16800000 L
 H-H-0.340000    0  148.28700000  102.35700000  -38.09400000 L
 H-H-0.340000    0  149.02300000  101.46100000  -36.94400000 L
 N-N--0.415700     0  141.85900000  100.40500000  -34.68600000 L
 C-CT--0.038900   0  140.85100000  101.32000000  -35.21300000 L
 C-C-0.597300      0  141.19700000  101.84400000  -36.58800000 L
 O-O--0.567900     0  142.31200000  102.31000000  -36.84700000 L
 C-CT-0.365400    0  140.59900000  102.49700000  -34.28600000 L
 O-OH--0.676100  0  140.33600000  101.99500000  -32.98400000 L
 C-CT--0.243800  0  139.38700000  103.33600000  -34.72700000 L
 H-H-0.271900      0  142.32600000  100.55300000  -33.75100000 L
 H-H1-0.100700    0  139.96900000  100.81900000  -35.27100000 L
 H-H1-0.004300    0  141.43800000  103.07400000  -34.24300000 L
 H-HC-0.064200  0  139.70100000  104.22800000  -35.05100000 L
 H-HC-0.064200  0  138.90600000  102.86200000  -35.46400000 L
 H-HC-0.064200  0  138.77000000  103.46000000  -33.95100000 L
 H-HO-0.410200   0  139.35100000  101.82200000  -32.86100000 L
 N-N--0.415700    0  140.25700000  101.74300000  -37.53400000 L
 C-CT--0.001400  0  140.50600000  102.10800000  -38.90300000 L
 C-C-0.597300     0  139.19100000  102.59100000  -39.46300000 L
 O-O--0.567900    0  138.30000000  101.79700000  -39.75600000 L
 C-CT--0.015200  0  141.04900000  100.87600000  -39.69100000 L
 C-CA--0.001100  0  141.36000000  101.18200000  -41.13400000 L
 C-CA--0.190600  0  142.40500000  102.05400000  -41.47500000 L
 C-CA--0.190600  0  140.59700000  100.60500000  -42.16300000 L
 C-CA--0.234100  0  142.67500000  102.34900000  -42.82000000 L
 C-CA--0.234100  0  140.85700000  100.90700000  -43.50700000 L
 C-C-0.322600    0  141.89900000  101.78000000  -43.83300000 L
 O-OH--0.557900  0  142.16800000  102.10100000  -45.17700000 L
 H-H-0.271900     0  139.34200000  101.38000000  -37.18500000 L
 H-H1-0.087600   0  141.15100000  102.86300000  -38.92300000 L
 H-HC-0.029500  0  141.87900000  100.57600000  -39.23900000 L
 H-HC-0.029500  0  140.35300000  100.17000000  -39.65600000 L
 H-HA-0.169900  0  142.95900000  102.46700000  -40.76200000 L
 H-HA-0.169900  0  139.86500000   99.97500000  -41.93600000 L
 H-HA-0.165600  0  143.42600000  102.96800000  -43.05300000 L
 H-HA-0.165600  0  140.30100000  100.50100000  -44.22700000 L
 H-HO-0.399200   0  141.50700000  102.78000000  -45.47400000 L
 N-N--0.415700    0  139.01600000  103.91400000  -39.63100000 L
 C-CT--0.003100  0  137.80100000  104.46300000  -40.19900000 L
 C-C-0.597300     0  137.59600000  104.12400000  -41.66700000 L
 O-O--0.567900    0  136.48200000  103.90000000  -42.12700000 L
 C-CT--0.003600  0  137.71400000  105.98600000  -39.97600000 L
 C-CT--0.064500  0  137.48100000  106.32500000  -38.48400000 L
 C-C-0.695100    0  136.69000000  107.62700000  -38.33900000 L
 H-H-0.271900     0  139.82400000  104.49100000  -39.31900000 L
 H-H1-0.085000   0  137.01100000  104.07800000  -39.68200000 L
 H-HC-0.017100  0  138.56500000  106.40100000  -40.25100000 L
 H-HC-0.017100  0  136.95100000  106.34400000  -40.49000000 L
 H-HC-0.035200  0  136.96300000  105.59000000  -38.07500000 L
 H-HC-0.035200  0  138.36100000  106.43500000  -38.04800000 L
 O-O--0.608600  0  136.49000000  108.37600000  -39.27600000 L
 N-N--0.940700  0  136.20800000  107.89700000  -37.09800000 L
 H-H-0.425100  0  135.69300000  108.74200000  -36.93300000 L
 H-H-0.425100  0  136.38600000  107.22500000  -36.36300000 L
 N-N--0.415700    0  138.71100000  104.07000000  -42.42900000 L
 C-CT--0.025200  0  138.68200000  103.80800000  -43.85800000 L
 C-C-0.597300     0  137.99300000  104.86900000  -44.66700000 L
 O-O--0.567900    0  137.70400000  105.96900000  -44.19800000 L
 H-H-0.271900     0  139.59200000  104.23500000  -41.89000000 L
 H-H1-0.069800  0  139.64300000  103.69500000  -44.19300000 L
 H-H1-0.069800  0  138.22500000  102.90600000  -44.02000000 L
 N-N--0.415700    0  137.71700000  104.56700000  -45.94300000 L
 C-CT--0.024900  0  137.21200000  105.52500000  -46.91500000 L
 C-C-0.597300     0  135.82200000  106.07300000  -46.64600000 L
 O-O--0.567900    0  135.45900000  107.12500000  -47.14300000 L
 C-CT-0.211700   0  137.16000000  104.90000000  -48.32700000 L
 O-OH--0.654600  0  138.45600000  104.42300000  -48.69000000 L
 H-H-0.271900     0  137.90200000  103.55700000  -46.18200000 L
 H-H1-0.084300   0  137.86200000  106.32100000  -46.93400000 L
 H-H1-0.035200  0  136.52800000  104.14200000  -48.31400000 L
 H-H1-0.035200  0  136.88000000  105.59500000  -48.97000000 L
 H-HO-0.427500   0  138.60000000  103.52300000  -48.28400000 L
 N-N--0.415700    0  135.01000000  105.33400000  -45.86100000 L
 C-CT--0.001400  0  133.63200000  105.69100000  -45.57800000 L
 C-C-0.597300     0  133.46400000  106.31700000  -44.19800000 L
 O-O--0.567900    0  132.35300000  106.64700000  -43.80200000 L
 C-CT--0.015200  0  132.71200000  104.44000000  -45.67100000 L
 C-CA--0.001100  0  132.80300000  103.84800000  -47.05000000 L
 C-CA--0.190600  0  132.15500000  104.48000000  -48.12100000 L
 C-CA--0.190600  0  133.56700000  102.69600000  -47.30400000 L
 C-CA--0.234100  0  132.30300000  104.00200000  -49.42900000 L
 C-CA--0.234100  0  133.70600000  102.20700000  -48.61100000 L
 C-C-0.322600    0  133.08800000  102.87300000  -49.67500000 L
 O-OH--0.557900  0  133.23800000  102.39800000  -50.99300000 L
 H-H-0.271900     0  135.47400000  104.47600000  -45.47600000 L
 H-H1-0.087600   0  133.33000000  106.37100000  -46.26700000 L
 H-HC-0.029500  0  133.03100000  103.78600000  -45.01800000 L
 H-HC-0.029500  0  131.79400000  104.73300000  -45.50700000 L
 H-HA-0.169900  0  131.58300000  105.27700000  -47.95200000 L
 H-HA-0.169900  0  134.01200000  102.22600000  -46.55400000 L
 H-HA-0.165600  0  131.84800000  104.47000000  -50.18600000 L
 H-HA-0.165600  0  134.24400000  101.38500000  -48.78200000 L
 H-HO-0.399200   0  132.49200000  101.77100000  -51.18500000 L
 N-N--0.415700    0  134.55500000  106.50700000  -43.41300000 L
 C-CT--0.025200  0  134.45300000  107.16000000  -42.10300000 L
 C-C-0.597300     0  133.74900000  106.32900000  -41.05700000 L
 O-O--0.567900    0  132.98100000  106.83400000  -40.23800000 L
 H-H-0.271900     0  135.43700000  106.15700000  -43.81700000 L
 H-H1-0.069800  0  135.39200000  107.39100000  -41.77900000 L
 H-H1-0.069800  0  133.96400000  108.04800000  -42.21800000 L
 N-N--0.415700    0  133.96600000  105.00000000  -41.09900000 L
 C-CT--0.002400  0  133.29000000  104.01100000  -40.28300000 L
 C-C-0.597300     0  133.66900000  104.09400000  -38.80900000 L
 O-O--0.567900    0  134.84600000  104.12000000  -38.45100000 L
 C-CT--0.034300  0  133.54400000  102.58800000  -40.86500000 L
 C-CA-0.011800   0  132.89000000  101.48000000  -40.06900000 L
 C-CA--0.125600  0  131.49800000  101.29200000  -40.08200000 L
 C-CA--0.125600  0  133.67700000  100.64600000  -39.25600000 L
 C-CA--0.170400  0  130.91000000  100.26900000  -39.32700000 L
 C-CA--0.170400  0  133.09300000   99.62700000  -38.49400000 L
 C-CA--0.107200  0  131.70800000   99.43400000  -38.53600000 L
 H-H-0.271900     0  134.70900000  104.73500000  -41.81500000 L
 H-H1-0.097800   0  132.29600000  104.20800000  -40.33700000 L
 H-HC-0.029500  0  133.17200000  102.57400000  -41.77600000 L
 H-HC-0.029500  0  134.51700000  102.43900000  -40.85900000 L
 H-HA-0.133000  0  130.92500000  101.88500000  -40.63000000 L
 H-HA-0.133000  0  134.66300000  100.78300000  -39.22400000 L
 H-HA-0.143000  0  129.91500000  100.14100000  -39.35700000 L
 H-HA-0.143000  0  133.67400000   99.03800000  -37.91800000 L
 H-HA-0.129700   0  131.28600000   98.70400000  -38.00600000 L
 N-N--0.347900    0  132.66800000  104.10700000  -37.91300000 L
 C-CT--0.263700  0  132.91200000  104.01900000  -36.49200000 L
 C-C-0.734100     0  131.66000000  103.56700000  -35.78500000 L
 O-O--0.589400    0  130.55400000  103.61300000  -36.34300000 L
 C-CT--0.000700  0  133.41800000  105.34600000  -35.84600000 L
 C-CT-0.039000   0  132.43000000  106.54000000  -35.82000000 L
 C-CT-0.048600   0  132.25300000  107.22300000  -37.17900000 L
 N-N2--0.529500  0  131.37700000  108.41900000  -36.97900000 L
 C-CA-0.807600   0  131.05200000  109.22400000  -37.99700000 L
 N-N2--0.862700  0  131.44900000  108.96900000  -39.23100000 L
 N-N2--0.862700  0  130.32000000  110.32000000  -37.80100000 L
 H-H-0.274700     0  131.72100000  104.18500000  -38.33800000 L
 H-H1-0.156000   0  133.64100000  103.34600000  -36.32500000 L
 H-HC-0.032700  0  133.67500000  105.14500000  -34.89800000 L
 H-HC-0.032700  0  134.23400000  105.63900000  -36.35000000 L
 H-HC-0.028500  0  131.53400000  106.21000000  -35.51600000 L
 H-HC-0.028500  0  132.76800000  107.22300000  -35.16900000 L
 H-H1-0.068700  0  133.12600000  107.52100000  -37.49500000 L
 H-H1-0.068700  0  131.80600000  106.60200000  -37.78300000 L
 H-H-0.345600    0  131.04100000  108.60600000  -36.07800000 L
 H-H-0.447800  0  131.98900000  108.14900000  -39.42900000 L
 H-H-0.447800  0  131.21000000  109.59600000  -39.97700000 L
 H-H-0.447800  0  129.99800000  110.52000000  -36.86900000 L
 H-H-0.447800  0  130.09800000  110.92100000  -38.55500000 L
 N-N--0.415700    0  131.80000000  103.11400000  -34.53400000 L
 C-CT--0.051800  0  130.68500000  102.69700000  -33.71500000 L
 C-C-0.597300     0  130.07700000  103.81500000  -32.89900000 L
 O-O--0.567900    0  130.64800000  104.88800000  -32.68100000 L
 C-CT--0.110200  0  131.07700000  101.54700000  -32.76200000 L
 C-CT-0.353100   0  131.69000000  100.34300000  -33.49900000 L
 C-CT--0.412100  0  132.23200000   99.32500000  -32.48800000 L
 C-CT--0.412100  0  130.74800000   99.69000000  -34.52300000 L
 H-H-0.271900     0  132.79700000  103.09100000  -34.20500000 L
 H-H1-0.092200   0  129.96100000  102.31600000  -34.32500000 L
 H-HC-0.045700  0  131.75200000  101.88900000  -32.13900000 L
 H-HC-0.045700  0  130.26400000  101.23800000  -32.31200000 L
 H-HC--0.036100  0  132.43600000  100.66200000  -34.07600000 L
 H-HC-0.100000  0  131.48400000   99.01000000  -31.90700000 L
 H-HC-0.100000  0  132.62600000   98.55100000  -32.98000000 L
 H-HC-0.100000  0  132.93400000   99.76100000  -31.92800000 L
 H-HC-0.100000  0  130.49700000  100.36500000  -35.21400000 L
 H-HC-0.100000  0  131.21700000   98.92200000  -34.95500000 L
 H-HC-0.100000  0  129.92900000   99.36600000  -34.05400000 L
 N-N--0.415700    0  128.85000000  103.58000000  -32.41800000 L
 C-CT--0.025200  0  128.24500000  104.40600000  -31.39600000 L
 C-C-0.597300     0  127.44600000  103.53800000  -30.48300000 L
 O-O--0.567900    0  127.08000000  102.40800000  -30.82000000 L
 H-H-0.271900     0  128.37800000  102.75200000  -32.84700000 L
 H-H1-0.069800  0  128.96300000  104.87900000  -30.88000000 L
 H-H1-0.069800  0  127.65100000  105.09000000  -31.82700000 L
 N-N--0.415700    0  127.12500000  104.05100000  -29.29300000 L
 C-CT--0.002400  0  126.41200000  103.30200000  -28.29200000 L
 C-C-0.597300     0  125.43000000  104.24500000  -27.65500000 L
 O-O--0.567900    0  125.67200000  105.44700000  -27.56200000 L
 C-CT--0.034300  0  127.32600000  102.76600000  -27.16300000 L
 C-CA-0.011800   0  128.33200000  101.79600000  -27.70700000 L
 C-CA--0.125600  0  129.56600000  102.25500000  -28.20000000 L
 C-CA--0.125600  0  128.05800000  100.41900000  -27.73300000 L
 C-CA--0.170400  0  130.49500000  101.36200000  -28.74200000 L
 C-CA--0.170400  0  128.99600000   99.51900000  -28.25500000 L
 C-CA--0.107200  0  130.20600000   99.99600000  -28.77000000 L
 H-H-0.271900     0  127.44000000  105.04200000  -29.16200000 L
 H-H1-0.097800   0  125.88200000  102.60400000  -28.76500000 L
 H-HC-0.029500  0  127.80100000  103.52800000  -26.78400000 L
 H-HC-0.029500  0  126.75700000  102.30000000  -26.52300000 L
 H-HA-0.133000  0  129.78100000  103.22200000  -28.16200000 L
 H-HA-0.133000  0  127.19400000  100.08200000  -27.37800000 L
 H-HA-0.143000  0  131.36100000  101.70800000  -29.10800000 L
 H-HA-0.143000  0  128.79300000   98.53200000  -28.25800000 L
 H-HA-0.129700   0  130.86900000   99.35800000  -29.16000000 L
 N-N--0.415700    0  124.28500000  103.69900000  -27.21400000 L
 C-CT--0.051800  0  123.30000000  104.38600000  -26.40700000 L
 C-C-0.597300     0  123.80000000  104.78900000  -25.03000000 L
 O-O--0.567900    0  124.70500000  104.18600000  -24.44500000 L
 C-CT--0.110200  0  122.02800000  103.53400000  -26.19200000 L
 C-CT-0.353100   0  121.28800000  103.10500000  -27.47300000 L
 C-CT--0.412100  0  120.11500000  102.19900000  -27.07700000 L
 C-CT--0.412100  0  120.77900000  104.30400000  -28.28900000 L
 H-H-0.271900     0  124.16900000  102.69000000  -27.52200000 L
 H-H1-0.092200   0  123.01100000  105.23200000  -26.89900000 L
 H-HC-0.045700  0  122.29600000  102.70800000  -25.71400000 L
 H-HC-0.045700  0  121.39600000  104.06800000  -25.64800000 L
 H-HC--0.036100  0  121.91100000  102.60200000  -28.05200000 L
 H-HC-0.100000  0  119.49800000  102.70500000  -26.47700000 L
 H-HC-0.100000  0  119.62800000  101.91400000  -27.90000000 L
 H-HC-0.100000  0  120.46700000  101.39600000  -26.59900000 L
 H-HC-0.100000  0  121.55600000  104.87200000  -28.55500000 L
 H-HC-0.100000  0  120.31000000  103.96900000  -29.10400000 L
 H-HC-0.100000  0  120.14700000  104.83600000  -27.72900000 L
 N-N--0.415700    0  123.18500000  105.83500000  -24.46200000 L
 C-CT-0.018800   0  123.49300000  106.31100000  -23.13600000 L
 C-C-0.597300     0  122.45800000  105.77500000  -22.17100000 L
 O-O--0.567900    0  121.48000000  106.43800000  -21.84200000 L
 C-CT--0.046200  0  123.56000000  107.85100000  -23.09400000 L
 C-CC--0.026600  0  124.67600000  108.36200000  -23.94900000 L
 H-H-0.271900     0  122.45500000  106.27500000  -25.07900000 L
 H-H1-0.088100   0  124.39000000  105.95800000  -22.86500000 L
 H-HC-0.040200  0  122.70200000  108.21900000  -23.43300000 L
 H-HC-0.040200  0  123.71700000  108.13900000  -22.15700000 L
 N-NA--0.381100  0  124.45200000  108.58300000  -25.29600000 L
 C-CV-0.129200  0  125.97900000  108.57200000  -23.65000000 L
 C-CR-0.205700  0  125.62200000  108.91900000  -25.78500000 L
 N-NB--0.572700  0  126.59300000  108.93500000  -24.83300000 L
 H-H-0.364900   0  123.60300000  108.50400000  -25.76700000 L
 H-H4-0.114700  0  126.41100000  108.48400000  -22.76500000 L
 H-H5-0.139200  0  125.80800000  109.14400000  -26.75700000 L
 N-N--0.415700    0  122.65500000  104.53000000  -21.69300000 L
 C-CT--0.024900  0  121.61200000  103.78800000  -20.98900000 L
 C-C-0.597300     0  121.67800000  103.89000000  -19.47900000 L
 O-O--0.567900    0  120.83500000  103.36800000  -18.76600000 L
 C-CT-0.211700   0  121.70000000  102.27600000  -21.30600000 L
 O-OH--0.654600  0  121.60400000  102.05100000  -22.71100000 L
 H-H-0.271900     0  123.60800000  104.15300000  -21.87100000 L
 H-H1-0.084300   0  120.71000000  104.16200000  -21.29000000 L
 H-H1-0.035200  0  122.57200000  101.93600000  -20.98200000 L
 H-H1-0.035200  0  120.94900000  101.81500000  -20.85200000 L
 H-HO-0.427500   0  122.31700000  102.57100000  -23.17700000 L
 N-N--0.415700    0  122.69500000  104.59500000  -18.94100000 L
 C-CT--0.025200  0  122.84300000  104.78400000  -17.50100000 L
 C-C-0.597300     0  123.31700000  103.56700000  -16.74900000 L
 O-O--0.567900    0  123.77700000  102.58600000  -17.32800000 L
 H-H-0.271900     0  123.35600000  104.98600000  -19.64400000 L
 H-H1-0.069800  0  123.49300000  105.55900000  -17.33600000 L
 H-H1-0.069800  0  121.94500000  105.09200000  -17.11600000 L
 N-N--0.415700    0  123.29800000  103.62500000  -15.41000000 L
 C-CT--0.038900  0  123.91600000  102.61800000  -14.55700000 L
 C-C-0.597300     0  122.99800000  102.18000000  -13.43900000 L
 O-O--0.567900    0  123.44400000  101.69500000  -12.39500000 L
 C-CT-0.365400   0  125.20100000  103.10300000  -13.91300000 L
 O-OH--0.676100  0  125.01400000  104.32300000  -13.20700000 L
 C-CT--0.243800  0  126.25200000  103.36500000  -14.99100000 L
 H-H-0.271900     0  122.79600000  104.46400000  -15.03200000 L
 H-H1-0.100700   0  124.13600000  101.81000000  -15.12800000 L
 H-H1-0.004300   0  125.52800000  102.39300000  -13.23800000 L
 H-HC-0.064200  0  127.06900000  103.76600000  -14.57400000 L
 H-HC-0.064200  0  126.49800000  102.50300000  -15.43800000 L
 H-HC-0.064200  0  125.88400000  103.99900000  -15.67300000 L
 H-HO-0.410200  0  125.82200000  104.53500000  -12.64400000 L
 N-N--0.415700    0  121.67200000  102.32400000  -13.63700000 L
 C-CT-0.033700   0  120.66400000  101.79400000  -12.74200000 L
 C-C-0.597300     0  120.80400000  100.28300000  -12.56500000 L
 O-O--0.567900    0  121.32000000   99.57900000  -13.43300000 L
 C-CT--0.182500  0  119.23400000  102.15100000  -13.21100000 L
 H-H-0.271900     0  121.44100000  102.86200000  -14.51100000 L
 H-H1-0.082300   0  120.76600000  102.23000000  -11.83500000 L
 H-HC-0.060300  0  118.62000000  101.40600000  -12.96700000 L
 H-HC-0.060300  0  118.94800000  102.99100000  -12.76000000 L
 H-HC-0.060300  0  119.24200000  102.27800000  -14.19800000 L
 N-N--0.347900    0  120.36800000   99.72800000  -11.42000000 L
 C-CT--0.240000  0  120.48400000   98.30600000  -11.13000000 L
 C-C-0.734100     0  119.72900000   97.40000000  -12.10100000 L
 O-O--0.589400    0  120.08400000   96.24600000  -12.28200000 L
 C-CT--0.009400  0  119.99200000   98.00200000   -9.69400000 L
 C-CT-0.018700   0  120.91000000   98.56100000   -8.59400000 L
 C-CT--0.047900  0  120.37200000   98.23100000   -7.18800000 L
 C-CT--0.014300  0  121.25500000   98.75000000   -6.04500000 L
 N-N3--0.385400  0  120.65700000   98.44400000   -4.72100000 L
 H-H-0.274700     0  119.93800000  100.41600000  -10.75800000 L
 H-H1-0.142600   0  121.47200000   98.04700000  -11.15300000 L
 H-HC-0.036200  0  119.09300000   98.40800000   -9.58400000 L
 H-HC-0.036200  0  119.94400000   97.01500000   -9.58800000 L
 H-HC-0.010300  0  121.81500000   98.15600000   -8.69100000 L
 H-HC-0.010300  0  120.96500000   99.55100000   -8.69000000 L
 H-HC-0.062100  0  119.46200000   98.63900000   -7.09400000 L
 H-HC-0.062100  0  120.29800000   97.23600000   -7.10200000 L
 H-HP-0.113500  0  122.15300000   98.31600000   -6.11500000 L
 H-HP-0.113500  0  121.35600000   99.74000000   -6.14600000 L
 H-H-0.340000   0  120.54200000   99.29200000   -4.20300000 L
 H-H-0.340000   0  119.76600000   98.00900000   -4.85000000 L
 H-H-0.340000   0  121.26000000   97.82500000   -4.21800000 L
 N-N--0.415700    0  118.67000000   97.93900000  -12.73900000 L
 C-CT--0.024900  0  117.80700000   97.23700000  -13.66300000 L
 C-C-0.597300     0  118.30600000   97.24700000  -15.10200000 L
 O-O--0.567900    0  117.74900000   96.55200000  -15.94700000 L
 C-CT-0.211700   0  116.40000000   97.90000000  -13.66400000 L
 O-OH--0.654600  0  116.47500000   99.30300000  -13.95300000 L
 H-H-0.271900     0  118.52700000   98.96300000  -12.48800000 L
 H-H1-0.084300   0  117.74800000   96.26300000  -13.36500000 L
 H-H1-0.035200  0  115.84500000   97.45700000  -14.35800000 L
 H-H1-0.035200  0  115.99500000   97.77800000  -12.76500000 L
 H-HO-0.427500   0  117.39000000   99.63100000  -13.73400000 L
 N-N--0.415700    0  119.35500000   98.04100000  -15.43500000 L
 C-CT--0.087500  0  119.84600000   98.15500000  -16.80600000 L
 C-C-0.597300     0  120.41300000   96.84700000  -17.36400000 L
 O-O--0.567900    0  121.14600000   96.11000000  -16.70000000 L
 C-CT-0.298500   0  120.80500000   99.34100000  -16.99600000 L
 C-CT--0.319200  0  122.24500000   99.01500000  -16.54600000 L
 C-CT--0.319200  0  120.77100000   99.84800000  -18.45300000 L
 H-H-0.271900     0  119.76700000   98.55200000  -14.62900000 L
 H-H1-0.096900   0  119.06600000   98.43000000  -17.39700000 L
 H-HC--0.029700  0  120.49100000  100.09100000  -16.41200000 L
 H-HC-0.079100  0  122.36100000   98.02600000  -16.52500000 L
 H-HC-0.079100  0  122.88500000   99.41900000  -17.19300000 L
 H-HC-0.079100  0  122.39400000   99.39500000  -15.63700000 L
 H-HC-0.079100  0  121.66600000   99.69900000  -18.86400000 L
 H-HC-0.079100  0  120.07400000   99.34000000  -18.95200000 L
 H-HC-0.079100  0  120.55200000  100.82000000  -18.44800000 L
 N-N--0.415700    0  120.08000000   96.50100000  -18.62200000 L
 C-CT--0.038900  0  120.44400000   95.21400000  -19.19700000 L
 C-C-0.597300     0  121.68100000   95.30400000  -20.05400000 L
 O-O--0.567900    0  122.36700000   94.31000000  -20.27300000 L
 C-CT-0.365400   0  119.33500000   94.67400000  -20.08700000 L
 O-OH--0.676100  0  118.88300000   95.65800000  -21.01000000 L
 C-CT--0.243800  0  118.13700000   94.32000000  -19.20100000 L
 H-H-0.271900     0  119.54500000   97.23200000  -19.13500000 L
 H-H1-0.100700   0  120.62300000   94.56700000  -18.43800000 L
 H-H1-0.004300   0  119.69800000   93.87500000  -20.62700000 L
 H-HC-0.064200  0  118.45700000   93.84800000  -18.37800000 L
 H-HC-0.064200  0  117.65600000   95.15700000  -18.93800000 L
 H-HC-0.064200  0  117.51200000   93.72300000  -19.70500000 L
 H-HO-0.410200  0  118.62400000   95.23100000  -21.88500000 L
 N-N--0.415700    0  121.99200000   96.51800000  -20.53800000 L
 C-CT-0.021300   0  123.15100000   96.79300000  -21.34900000 L
 C-C-0.597300     0  123.56300000   98.24000000  -21.12000000 L
 O-O--0.567900    0  122.72300000   99.14200000  -21.13600000 L
 C-CT--0.123100  0  122.83000000   96.52500000  -22.84600000 L
 S-SH--0.311900  0  124.26600000   96.67600000  -23.94600000 L
 H-H-0.271900     0  121.29300000   97.26100000  -20.26100000 L
 H-H1-0.112400   0  123.90200000   96.20700000  -21.04900000 L
 H-H1-0.111200  0  122.47300000   95.60100000  -22.91600000 L
 H-H1-0.111200  0  122.14400000   97.18600000  -23.12900000 L
 H-HS-0.193300   0  124.39400000   95.81700000  -24.44000000 L
 N-N--0.415700    0  124.85800000   98.51800000  -20.88700000 L
 C-CT--0.038900  0  125.34100000   99.87700000  -20.70000000 L
 C-C-0.597300     0  126.76800000   99.97500000  -21.17300000 L
 O-O--0.567900    0  127.56700000   99.05000000  -21.01500000 L
 C-CT-0.365400   0  125.17900000  100.38100000  -19.26600000 L
 O-OH--0.676100  0  125.53000000  101.75400000  -19.08800000 L
 C-CT--0.243800  0  125.96900000   99.54500000  -18.24600000 L
 H-H-0.271900     0  125.47300000   97.67700000  -20.85400000 L
 H-H1-0.100700   0  124.77400000  100.49500000  -21.25300000 L
 H-H1-0.004300   0  124.18400000  100.27100000  -18.98400000 L
 H-HC-0.064200  0  125.57100000   98.63000000  -18.18700000 L
 H-HC-0.064200  0  126.92200000   99.47600000  -18.54000000 L
 H-HC-0.064200  0  125.92600000   99.98700000  -17.35000000 L
 H-HO-0.410200  0  124.90700000  102.19400000  -18.43200000 L
 N-N--0.415700    0  127.13500000  101.10000000  -21.80200000 L
 C-CT--0.001400  0  128.43800000  101.30900000  -22.38100000 L
 C-C-0.597300     0  129.14100000  102.39200000  -21.58500000 L
 O-O--0.567900    0  128.55600000  103.42800000  -21.26400000 L
 C-CT--0.015200  0  128.28500000  101.70200000  -23.87500000 L
 C-CA--0.001100  0  129.60500000  102.04100000  -24.51200000 L
 C-CA--0.190600  0  130.55400000  101.05400000  -24.82700000 L