%nprocshared=16
%mem=2GB
%chk=complex.chk
# opt oniom(b3lyp/6-31g(d):amber=hardfirst)

Title Card Required

-11 1 -1 1 -1 1
 N-N3-0.184900     0   43.23900000    7.68600000  -10.31400000 L
 C-CT-0.056700    0   42.92700000    7.30300000   -8.87600000 L
 C-C-0.616300      0   41.62600000    6.50300000   -8.77600000 L
 O-O--0.572200     0   40.91200000    6.40700000   -9.77500000 L
 C-CT-0.259600    0   42.83800000    8.59000000   -7.99400000 L
 O-OH--0.671400   0   41.70800000    9.38700000   -8.35100000 L
 H-H-0.189800     0   42.49800000    7.36400000  -10.89000000 L
 H-HP-0.078200    0   43.68400000    6.72500000   -8.56300000 L
 H-H1-0.027300   0   42.75500000    8.31000000   -7.04600000 L
 H-H1-0.027300   0   43.66700000    9.11700000   -8.13300000 L
 H-H-0.189800     0   43.31600000    8.67400000  -10.36400000 L
 H-H-0.189800     0   44.09500000    7.25600000  -10.57300000 L
 H-HO-0.423900    0   41.85600000    9.77800000   -9.25600000 L
 N-N--0.415700     0   41.27200000    5.89800000   -7.61100000 L
 C-CT-0.033700    0   39.97900000    5.26100000   -7.39000000 L
 C-C-0.597300      0   38.80300000    6.22900000   -7.46800000 L
 O-O--0.567900     0   37.83000000    5.96700000   -8.17200000 L
 C-CT--0.182500   0   39.97800000    4.56400000   -6.01400000 L
 H-H-0.271900      0   42.02700000    5.93600000   -6.88300000 L
 H-H1-0.082300    0   39.84800000    4.54000000   -8.09600000 L
 H-HC-0.060300   0   40.79200000    3.99500000   -5.93900000 L
 H-HC-0.060300   0   39.98100000    5.25800000   -5.29900000 L
 H-HC-0.060300   0   39.16000000    4.00000000   -5.93700000 L
 N-N--0.415700     0   38.90100000    7.41200000   -6.81500000 L
 C-CT--0.059700   0   37.84200000    8.41600000   -6.83300000 L
 C-C-0.597300      0   37.52800000    8.91900000   -8.23300000 L
 O-O--0.567900     0   36.37400000    8.93400000   -8.64700000 L
 C-CT-0.130300    0   38.05600000    9.56200000   -5.82600000 L
 C-CT--0.043000  0   36.73000000   10.34000000   -5.63500000 L
 C-CT--0.320400  0   39.24500000   10.48600000   -6.18600000 L
 C-CT--0.066000  0   36.72700000   11.30900000   -4.44700000 L
 H-H-0.271900      0   39.80100000    7.53300000   -6.30200000 L
 H-H1-0.086900    0   37.00800000    7.95100000   -6.49800000 L
 H-HC-0.018700    0   38.30000000    9.16700000   -4.95300000 L
 H-HC-0.023600  0   36.54800000   10.85500000   -6.46900000 L
 H-HC-0.023600  0   35.99800000    9.67400000   -5.50200000 L
 H-HC-0.088200  0   39.37400000   11.14300000   -5.45100000 L
 H-HC-0.088200  0   40.06200000    9.93000000   -6.29500000 L
 H-HC-0.088200  0   39.03800000   10.95900000   -7.03600000 L
 H-HC-0.018600  0   37.44800000   11.98200000   -4.58000000 L
 H-HC-0.018600  0   35.84100000   11.76100000   -4.40300000 L
 H-HC-0.018600  0   36.89000000   10.79300000   -3.61100000 L
 N-N--0.516300     0   38.54700000    9.24300000   -9.04500000 L
 C-CT-0.039700    0   38.37400000    9.72900000  -10.39900000 L
 C-C-0.536600      0   37.79100000    8.71900000  -11.36700000 L
 O-O--0.581900     0   37.09700000    9.02700000  -12.33900000 L
 C-CT-0.056000    0   39.73800000   10.16500000  -10.93700000 L
 C-CT-0.013600    0   39.65200000   10.88600000  -12.29500000 L
 C-C-0.805400     0   40.92500000   11.66000000  -12.61300000 L
 O-O2--0.818800  0   41.84400000   11.67600000  -11.75300000 L
 O-O2--0.818800  0   40.98300000   12.18000000  -13.75200000 L
 H-H-0.293600      0   39.49200000    9.10900000   -8.59900000 L
 H-H1-0.110500    0   37.77800000   10.56400000  -10.38600000 L
 H-HC--0.017300  0   40.12900000   10.79600000  -10.29900000 L
 H-HC--0.017300  0   40.28400000    9.36400000  -11.06800000 L
 H-HC--0.042500  0   39.53300000   10.20800000  -12.98800000 L
 H-HC--0.042500  0   38.91600000   11.52700000  -12.25100000 L
 N-N--0.347900     0   38.12700000    7.44000000  -11.17500000 L
 C-CT--0.263700   0   37.52800000    6.34400000  -11.89400000 L
 C-C-0.734100      0   36.06600000    6.07700000  -11.55000000 L
 O-O--0.589400     0   35.24000000    5.94900000  -12.45300000 L
 C-CT--0.000700   0   38.39100000    5.09900000  -11.64400000 L
 C-CT-0.039000    0   37.95600000    3.85900000  -12.44100000 L
 C-CT-0.048600    0   38.89900000    2.65800000  -12.27500000 L
 N-N2--0.529500   0   39.01700000    2.34600000  -10.80900000 L
 C-CA-0.807600    0   38.06500000    1.70200000  -10.12000000 L
 N-N2--0.862700  0   36.94900000    1.28000000  -10.69700000 L
 N-N2--0.862700  0   38.18600000    1.43700000   -8.82100000 L
 H-H-0.274700      0   38.87500000    7.31000000  -10.44400000 L
 H-H1-0.156000    0   37.58700000    6.53500000  -12.89900000 L
 H-HC-0.032700   0   39.32800000    5.31100000  -11.90000000 L
 H-HC-0.032700   0   38.34000000    4.87100000  -10.67800000 L
 H-HC-0.028500   0   37.04300000    3.57700000  -12.13900000 L
 H-HC-0.028500   0   37.92200000    4.09000000  -13.41600000 L
 H-H1-0.068700   0   38.50700000    1.88800000  -12.72800000 L
 H-H1-0.068700   0   39.78000000    2.90500000  -12.61500000 L
 H-H-0.345600     0   39.84100000    2.63600000  -10.34400000 L
 H-H-0.447800   0   36.81100000    1.42400000  -11.67900000 L
 H-H-0.447800   0   36.24600000    0.81900000  -10.15700000 L
 H-H-0.447800   0   39.04000000    1.72300000   -8.36400000 L
 H-H-0.447800   0   37.47100000    0.97900000   -8.32600000 L
 N-N--0.415700     0   35.73200000    6.03100000  -10.24500000 L
 C-CT--0.059700   0   34.40300000    5.77700000   -9.70800000 L
 C-C-0.597300      0   33.42000000    6.90600000   -9.99900000 L
 O-O--0.567900     0   32.23700000    6.68700000  -10.25300000 L
 C-CT-0.130300    0   34.49700000    5.42900000   -8.22000000 L
 C-CT--0.043000  0   35.18600000    4.04700000   -8.06000000 L
 C-CT--0.320400  0   33.10800000    5.41400000   -7.54500000 L
 C-CT--0.066000  0   35.63000000    3.73300000   -6.62700000 L
 H-H-0.271900      0   36.57300000    6.20700000   -9.61000000 L
 H-H1-0.086900    0   34.05300000    4.96000000  -10.19100000 L
 H-HC-0.018700    0   35.07100000    6.09900000   -7.77500000 L
 H-HC-0.023600  0   34.54700000    3.34500000   -8.36000000 L
 H-HC-0.023600  0   35.98800000    4.03400000   -8.65100000 L
 H-HC-0.088200  0   33.22200000    5.21200000   -6.57800000 L
 H-HC-0.088200  0   32.68500000    6.30700000   -7.65900000 L
 H-HC-0.088200  0   32.54800000    4.71400000   -7.97600000 L
 H-HC-0.018600  0   34.83000000    3.73900000   -6.03400000 L
 H-HC-0.018600  0   36.05900000    2.83500000   -6.61300000 L
 H-HC-0.018600  0   36.28000000    4.42800000   -6.33200000 L
 N-N--0.415700     0   33.86900000    8.17800000  -10.01000000 L
 C-CT--0.038900   0   32.96100000    9.31300000  -10.15000000 L
 C-C-0.597300      0   32.73000000    9.73700000  -11.57400000 L
 O-O--0.567900     0   31.98400000   10.67800000  -11.84400000 L
 C-CT-0.365400    0   33.38800000   10.54700000   -9.37700000 L
 O-OH--0.676100  0   34.67600000   11.00600000   -9.75900000 L
 C-CT--0.243800  0   33.43300000   10.16100000   -7.89800000 L
 H-H-0.271900      0   34.89700000    8.26900000   -9.91200000 L
 H-H1-0.100700    0   32.06400000    9.04900000   -9.73900000 L
 H-H1-0.004300    0   32.71200000   11.30900000   -9.56000000 L
 H-HC-0.064200  0   34.02600000   10.79800000   -7.40200000 L
 H-HC-0.064200  0   32.51000000   10.19900000   -7.51200000 L
 H-HC-0.064200  0   33.79300000    9.23200000   -7.80400000 L
 H-HO-0.410200   0   35.38800000   10.35800000   -9.46100000 L
 N-N--0.347900     0   33.28500000    9.00400000  -12.55800000 L
 C-CT--0.240000   0   32.87800000    9.16300000  -13.93800000 L
 C-C-0.734100      0   31.38700000    8.89000000  -14.10300000 L
 O-O--0.589400     0   30.82900000    7.97400000  -13.49900000 L
 C-CT--0.009400   0   33.65800000    8.22600000  -14.89100000 L
 C-CT-0.018700    0   35.14200000    8.59600000  -15.01700000 L
 C-CT--0.047900   0   35.91400000    7.68000000  -15.98100000 L
 C-CT--0.014300   0   37.35800000    8.12800000  -16.24400000 L
 N-N3--0.385400   0   38.16100000    8.00500000  -15.01100000 L
 H-H-0.274700      0   34.00900000    8.33700000  -12.23500000 L
 H-H1-0.142600    0   33.06400000   10.11000000  -14.23200000 L
 H-HC-0.036200   0   33.59600000    7.30400000  -14.53500000 L
 H-HC-0.036200   0   33.24300000    8.28700000  -15.78900000 L
 H-HC-0.010300   0   35.21300000    9.54100000  -15.34900000 L
 H-HC-0.010300   0   35.56900000    8.53800000  -14.11100000 L
 H-HC-0.062100   0   35.93700000    6.75700000  -15.59200000 L
 H-HC-0.062100   0   35.42700000    7.65700000  -16.85600000 L
 H-HP-0.113500   0   37.74300000    7.54900000  -16.95800000 L
 H-HP-0.113500   0   37.34400000    9.07800000  -16.54500000 L
 H-H-0.340000    0   38.49200000    8.90800000  -14.73300000 L
 H-H-0.340000    0   37.59700000    7.62000000  -14.27800000 L
 H-H-0.340000    0   38.94400000    7.40300000  -15.17700000 L
 N-N--0.415700    0   30.69100000    9.67900000  -14.94600000 L
 C-CT-0.033700   0   29.24700000    9.61000000  -15.09000000 L
 C-C-0.597300     0   28.73200000    8.21100000  -15.42500000 L
 O-O--0.567900    0   27.78500000    7.72500000  -14.80700000 L
 C-CT--0.182500  0   28.79900000   10.60300000  -16.17900000 L
 H-H-0.271900     0   31.29300000   10.34500000  -15.48600000 L
 H-H1-0.082300   0   28.81600000    9.90600000  -14.21600000 L
 H-HC-0.060300  0   28.18500000   10.13700000  -16.81100000 L
 H-HC-0.060300  0   28.32700000   11.36700000  -15.74800000 L
 H-HC-0.060300  0   29.60200000   10.93300000  -16.66800000 L
 N-N--0.415700    0   29.44200000    7.51500000  -16.33300000 L
 C-CT-0.033700   0   29.15800000    6.17500000  -16.79300000 L
 C-C-0.597300     0   29.47600000    5.06300000  -15.79300000 L
 O-O--0.567900    0   29.00700000    3.93800000  -15.94300000 L
 C-CT--0.182500  0   29.99400000    5.92400000  -18.06700000 L
 H-H-0.271900     0   30.27700000    8.07600000  -16.69900000 L
 H-H1-0.082300   0   28.16100000    6.11100000  -17.02900000 L
 H-HC-0.060300  0   29.91200000    4.96500000  -18.32400000 L
 H-HC-0.060300  0   29.64900000    6.50400000  -18.80000000 L
 H-HC-0.060300  0   30.94600000    6.14600000  -17.87700000 L
 N-N--0.415700    0   30.29600000    5.32000000  -14.74900000 L
 C-CT--0.058100  0   30.73500000    4.26000000  -13.85600000 L
 C-C-0.597300     0   29.64500000    3.79600000  -12.89200000 L
 O-O--0.567900    0   28.97100000    4.59500000  -12.23900000 L
 C-CT--0.007400  0   32.03200000    4.63300000  -13.09800000 L
 C-CC-0.186800   0   32.70800000    3.45400000  -12.47300000 L
 N-NB--0.543200  0   33.56200000    2.71500000  -13.25200000 L
 C-CW--0.220700  0   32.75000000    3.02500000  -11.18000000 L
 C-CR-0.163500  0   34.11600000    1.84500000  -12.42500000 L
 N-NA--0.279500  0   33.66100000    1.99300000  -11.16200000 L
 H-H-0.271900     0   30.56800000    6.31200000  -14.65500000 L
 H-H1-0.136000   0   31.01600000    3.46200000  -14.41800000 L
 H-HC-0.036700  0   32.66600000    5.06200000  -13.74400000 L
 H-HC-0.036700  0   31.80100000    5.29000000  -12.37800000 L
 H-H4-0.186200  0   32.23600000    3.37900000  -10.42000000 L
 H-H5-0.143500  0   34.79900000    1.14700000  -12.69000000 L
 H-H-0.333900   0   33.93900000    1.45700000  -10.38500000 L
 N-N--0.415700    0   29.44100000    2.47600000  -12.79700000 L
 C-CT--0.051800  0   28.53700000    1.85200000  -11.86400000 L
 C-C-0.597300     0   29.42800000    1.08500000  -10.92700000 L
 O-O--0.567900    0   30.21800000    0.26100000  -11.37400000 L
 C-CT--0.110200  0   27.59600000    0.84000000  -12.56300000 L
 C-CT-0.353100   0   26.72700000    1.44800000  -13.67700000 L
 C-CT--0.412100  0   25.95600000    0.33800000  -14.40600000 L
 C-CT--0.412100  0   25.77800000    2.52400000  -13.13100000 L
 H-H-0.271900     0   30.02200000    1.92100000  -13.49000000 L
 H-H1-0.092200   0   28.06300000    2.55100000  -11.35500000 L
 H-HC-0.045700  0   28.15900000    0.14100000  -12.97200000 L
 H-HC-0.045700  0   26.99100000    0.47200000  -11.87900000 L
 H-HC--0.036100  0   27.31500000    1.91900000  -14.32600000 L
 H-HC-0.100000  0   25.37100000   -0.13800000  -13.75200000 L
 H-HC-0.100000  0   25.39700000    0.74600000  -15.12500000 L
 H-HC-0.100000  0   26.60700000   -0.30400000  -14.80700000 L
 H-HC-0.100000  0   26.31600000    3.25400000  -12.71400000 L
 H-HC-0.100000  0   25.23300000    2.89300000  -13.88200000 L
 H-HC-0.100000  0   25.17700000    2.11400000  -12.44700000 L
 N-N--0.415700    0   29.34700000    1.36300000   -9.61300000 L
 C-CT--0.059700  0   30.10200000    0.61900000   -8.61800000 L
 C-C-0.597300     0   29.67300000   -0.83800000   -8.59000000 L
 O-O--0.567900    0   28.48400000   -1.15200000   -8.54700000 L
 C-CT-0.130300   0   29.98900000    1.24400000   -7.22300000 L
 C-CT--0.043000  0   30.63500000    2.64800000   -7.20700000 L
 C-CT--0.320400  0   30.63900000    0.35000000   -6.13800000 L
 C-CT--0.066000  0   30.44300000    3.39500000   -5.88100000 L
 H-H-0.271900     0   28.70400000    2.14700000   -9.38400000 L
 H-H1-0.086900   0   31.06000000    0.63100000   -8.92200000 L
 H-HC-0.018700   0   29.02600000    1.35500000   -7.00600000 L
 H-HC-0.023600  0   31.60800000    2.54800000   -7.37900000 L
 H-HC-0.023600  0   30.22400000    3.18700000   -7.93500000 L
 H-HC-0.088200  0   30.49700000    0.77200000   -5.24900000 L
 H-HC-0.088200  0   30.21100000   -0.54700000   -6.16400000 L
 H-HC-0.088200  0   31.61200000    0.27100000   -6.32900000 L
 H-HC-0.018600  0   30.85700000    2.86100000   -5.14900000 L
 H-HC-0.018600  0   30.88400000    4.28500000   -5.94800000 L
 H-HC-0.018600  0   29.46800000    3.50700000   -5.71400000 L
 N-N--0.516300    0   30.65100000   -1.75600000   -8.59100000 L
 C-CT-0.038100   0   30.38900000   -3.16300000   -8.43000000 L
 C-C-0.536600     0   31.34800000   -3.75700000   -7.40800000 L
 O-O--0.581900    0   32.01600000   -3.06300000   -6.63500000 L
 C-CT--0.030300  0   30.26200000   -3.91300000   -9.79900000 L
 C-C-0.799400    0   31.54100000   -4.06200000  -10.61200000 L
 O-O2--0.801400  0   32.62400000   -4.18800000   -9.98800000 L
 O-O2--0.801400  0   31.43700000   -4.17400000  -11.85900000 L
 H-H-0.293600     0   31.60700000   -1.35200000   -8.71800000 L
 H-H1-0.088000   0   29.46300000   -3.26100000   -8.05100000 L
 H-HC--0.012200  0   29.89600000   -4.82800000   -9.59800000 L
 H-HC--0.012200  0   29.58500000   -3.41000000  -10.34600000 L
 N-N--0.415700    0   31.41000000   -5.09300000   -7.32900000 L
 C-CT--0.023700  0   32.27100000   -5.80100000   -6.40900000 L
 C-C-0.597300     0   33.75400000   -5.73700000   -6.76700000 L
 O-O--0.567900    0   34.60600000   -6.02100000   -5.92100000 L
 C-CT-0.034200   0   31.85000000   -7.28500000   -6.32400000 L
 C-CT-0.001800   0   30.42100000   -7.52600000   -5.79700000 L
 S-S--0.273700   0   30.00500000   -6.73400000   -4.20500000 L
 C-CT--0.053600  0   31.37600000   -7.38100000   -3.20100000 L
 H-H-0.271900     0   30.76700000   -5.58000000   -8.00600000 L
 H-H1-0.088000   0   32.16100000   -5.38600000   -5.48300000 L
 H-HC-0.024100  0   31.91700000   -7.69500000   -7.24300000 L
 H-HC-0.024100  0   32.49300000   -7.77100000   -5.71700000 L
 H-H1-0.044000  0   29.75700000   -7.22400000   -6.53500000 L
 H-H1-0.044000  0   30.27400000   -8.55200000   -5.73900000 L
 H-H1-0.068400  0   31.86400000   -8.07100000   -3.72900000 L
 H-H1-0.068400  0   31.98900000   -6.63000000   -2.97100000 L
 H-H1-0.068400  0   31.00400000   -7.78600000   -2.37000000 L
 N-N--0.415700    0   34.10900000   -5.33900000   -8.00500000 L
 C-CT-0.014300   0   35.48200000   -5.18800000   -8.45300000 L
 C-C-0.597300     0   36.06900000   -3.86400000   -7.98400000 L
 O-O--0.567900    0   37.28700000   -3.69100000   -7.96500000 L
 C-CT--0.204100  0   35.59200000   -5.29500000   -9.99700000 L
 C-C-0.713000    0   35.29400000   -6.71700000  -10.45400000 L
 H-H-0.271900     0   33.27900000   -5.14500000   -8.62700000 L
 H-H1-0.104800   0   36.02200000   -5.91900000   -8.01800000 L
 H-HC-0.079700  0   34.92900000   -4.68600000  -10.39400000 L
 H-HC-0.079700  0   36.51300000   -5.06200000  -10.25500000 L
 O-O--0.593100  0   35.58300000   -7.70300000   -9.76600000 L
 N-N--0.919100  0   34.73400000   -6.86300000  -11.67500000 L
 H-H-0.419600  0   34.55000000   -6.04200000  -12.21500000 L
 H-H-0.419600  0   34.51700000   -7.76400000  -12.01500000 L
 N-N--0.516300    0   35.22300000   -2.91400000   -7.53100000 L
 C-CT-0.038100   0   35.67900000   -1.70000000   -6.88900000 L
 C-C-0.536600     0   35.96400000   -1.87100000   -5.41600000 L
 O-O--0.581900    0   36.60300000   -1.03000000   -4.78800000 L
 C-CT--0.030300  0   34.59900000   -0.61100000   -6.97200000 L
 C-C-0.799400    0   34.41200000   -0.25600000   -8.42100000 L
 O-O2--0.801400  0   33.27600000   -0.35700000   -8.93800000 L
 O-O2--0.801400  0   35.42900000    0.17200000   -9.01700000 L
 H-H-0.293600     0   34.21500000   -3.14400000   -7.69000000 L
 H-H1-0.088000   0   36.55600000   -1.43600000   -7.33500000 L
 H-HC--0.012200  0   33.77000000   -0.98300000   -6.61800000 L
 H-HC--0.012200  0   34.92000000    0.16800000   -6.48400000 L
 N-N--0.415700    0   35.48400000   -2.97400000   -4.82000000 L
 C-CT--0.059700  0   35.50400000   -3.14400000   -3.38300000 L
 C-C-0.597300     0   36.72900000   -3.92800000   -2.96500000 L
 O-O--0.567900    0   36.87600000   -5.11500000   -3.26200000 L
 C-CT-0.130300   0   34.22300000   -3.78200000   -2.85800000 L
 C-CT--0.043000  0   33.04300000   -2.82000000   -3.13800000 L
 C-CT--0.320400  0   34.33800000   -4.09900000   -1.34600000 L
 C-CT--0.066000  0   31.66800000   -3.43200000   -2.87100000 L
 H-H-0.271900     0   35.10300000   -3.68200000   -5.48300000 L
 H-H1-0.086900   0   35.60100000   -2.22500000   -2.98900000 L
 H-HC-0.018700   0   34.05300000   -4.61300000   -3.36200000 L
 H-HC-0.023600  0   33.15500000   -2.01500000   -2.56300000 L
 H-HC-0.023600  0   33.08900000   -2.54700000   -4.09500000 L
 H-HC-0.088200  0   33.49300000   -4.52700000   -1.04400000 L
 H-HC-0.088200  0   35.10400000   -4.71700000   -1.20600000 L
 H-HC-0.088200  0   34.48800000   -3.25000000   -0.85200000 L
 H-HC-0.018600  0   31.61400000   -3.70100000   -1.91300000 L
 H-HC-0.018600  0   30.96700000   -2.75400000   -3.07400000 L
 H-HC-0.018600  0   31.55000000   -4.23000000   -3.45600000 L
 N-N--0.415700    0   37.64700000   -3.26100000   -2.23600000 L
 C-CT--0.059700  0   38.85600000   -3.85000000   -1.69600000 L
 C-C-0.597300     0   38.55700000   -4.77400000   -0.53300000 L
 O-O--0.567900    0   37.52800000   -4.67100000    0.13400000 L
 C-CT-0.130300   0   39.92700000   -2.83900000   -1.30200000 L
 C-CT--0.043000  0   39.47800000   -1.89500000   -0.16500000 L
 C-CT--0.320400  0   40.34200000   -2.07400000   -2.57500000 L
 C-CT--0.066000  0   40.61800000   -1.04500000    0.39400000 L
 H-H-0.271900     0   37.39300000   -2.24300000   -2.09400000 L
 H-H1-0.086900   0   39.24500000   -4.42400000   -2.42900000 L
 H-HC-0.018700   0   40.73200000   -3.34100000   -0.97200000 L
 H-HC-0.023600  0   38.77100000   -1.29400000   -0.51800000 L
 H-HC-0.023600  0   39.10600000   -2.45100000    0.57000000 L
 H-HC-0.088200  0   41.10100000   -1.46900000   -2.35600000 L
 H-HC-0.088200  0   40.62000000   -2.73000000   -3.27000000 L
 H-HC-0.088200  0   39.56600000   -1.54200000   -2.90000000 L
 H-HC-0.018600  0   40.99400000   -0.48400000   -0.33900000 L
 H-HC-0.018600  0   40.26200000   -0.46200000    1.12000000 L
 H-HC-0.018600  0   41.32400000   -1.64800000    0.75700000 L
 N-N--0.347900    0   39.45500000   -5.73800000   -0.26600000 L
 C-CT--0.263700  0   39.19900000   -6.82300000    0.65600000 L
 C-C-0.734100     0   40.26000000   -6.83600000    1.74000000 L
 O-O--0.589400    0   41.24400000   -6.09900000    1.66600000 L
 C-CT--0.000700  0   39.18000000   -8.19000000   -0.07700000 L
 C-CT-0.039000   0   38.32800000   -8.19600000   -1.36300000 L
 C-CT-0.048600   0   36.84100000   -7.95000000   -1.11000000 L
 N-N2--0.529500  0   36.21700000   -7.68500000   -2.43400000 L
 C-CA-0.807600   0   35.66800000   -8.62000000   -3.21300000 L
 N-N2--0.862700  0   35.69600000   -9.91100000   -2.91500000 L
 N-N2--0.862700  0   35.09400000   -8.25600000   -4.35600000 L
 H-H-0.274700     0   40.35600000   -5.62600000   -0.79100000 L
 H-H1-0.156000   0   38.30200000   -6.68500000    1.08600000 L
 H-HC-0.032700  0   40.11100000   -8.41800000   -0.32700000 L
 H-HC-0.032700  0   38.80300000   -8.86500000    0.54100000 L
 H-HC-0.028500  0   38.66300000   -7.48000000   -1.97800000 L
 H-HC-0.028500  0   38.42500000   -9.08600000   -1.81200000 L
 H-H1-0.068700  0   36.45300000   -8.75600000   -0.73100000 L
 H-H1-0.068700  0   36.74800000   -7.16000000   -0.55000000 L
 H-H-0.345600    0   36.21300000   -6.73400000   -2.75700000 L
 H-H-0.447800  0   36.13100000  -10.20400000   -2.05700000 L
 H-H-0.447800  0   35.29200000  -10.58100000   -3.52800000 L
 H-H-0.447800  0   35.05900000   -7.29100000   -4.61500000 L
 H-H-0.447800  0   34.69500000   -8.94900000   -4.95800000 L
 N-N--0.516300    0   40.06200000   -7.64900000    2.80300000 L
 C-CT-0.039700   0   41.06300000   -7.95700000    3.82100000 L
 C-C-0.536600     0   42.48200000   -8.14700000    3.29900000 L
 O-O--0.581900    0   42.72300000   -8.81600000    2.29800000 L
 C-CT-0.056000   0   40.74000000   -9.21200000    4.67100000 L
 C-CT-0.013600   0   39.30900000   -9.29100000    5.23100000 L
 C-C-0.805400    0   39.16000000  -10.45600000    6.19200000 L
 O-O2--0.818800  0   39.25500000  -10.22300000    7.42500000 L
 O-O2--0.818800  0   38.92700000  -11.60300000    5.74600000 L
 H-H-0.293600     0   39.08400000   -8.05300000    2.82900000 L
 H-H1-0.110500   0   41.06300000   -7.21300000    4.52700000 L
 H-HC--0.017300  0   40.87500000  -10.00200000    4.09400000 L
 H-HC--0.017300  0   41.35900000   -9.21600000    5.44000000 L
 H-HC--0.042500  0   39.13500000   -8.46900000    5.72400000 L
 H-HC--0.042500  0   38.70100000   -9.43800000    4.48400000 L
 N-N--0.415700    0   43.47100000   -7.52800000    3.97000000 L
 C-CT--0.025200  0   44.85800000   -7.56900000    3.53100000 L
 C-C-0.597300     0   45.22900000   -6.31600000    2.80000000 L
 O-O--0.567900    0   46.39100000   -5.92500000    2.78100000 L
 H-H-0.271900     0   43.15100000   -7.02300000    4.82400000 L
 H-H1-0.069800  0   45.45700000   -7.68700000    4.33700000 L
 H-H1-0.069800  0   44.99100000   -8.37000000    2.92900000 L
 N-N--0.415700    0   44.24300000   -5.59600000    2.22500000 L
 C-CT-0.014300   0   44.48400000   -4.27600000    1.68500000 L
 C-C-0.597300     0   44.70100000   -3.28300000    2.85400000 L
 O-O--0.567900    0   43.79000000   -3.15600000    3.67800000 L
 C-CT--0.204100  0   43.34100000   -3.85300000    0.71900000 L
 C-C-0.713000    0   43.77300000   -2.64500000   -0.10100000 L
 H-H-0.271900     0   43.32300000   -6.07500000    2.21200000 L
 H-H1-0.104800   0   45.34300000   -4.30200000    1.17800000 L
 H-HC-0.079700  0   43.16100000   -4.60400000    0.11300000 L
 H-HC-0.079700  0   42.55900000   -3.61000000    1.26100000 L
 O-O--0.593100  0   44.25300000   -1.66500000    0.47600000 L
 N-N--0.919100  0   43.62000000   -2.68100000   -1.44200000 L
 H-H-0.419600  0   43.21500000   -3.51900000   -1.83100000 L
 H-H-0.419600  0   43.89100000   -1.92600000   -1.99900000 L
 N-N--0.254800    0   45.83600000   -2.57800000    3.00700000 L
 C-CT--0.026600  0   46.11300000   -1.71900000    4.15500000 L
 C-C-0.589600     0   45.14200000   -0.57300000    4.31600000 L
 O-O--0.574800    0   44.97500000   -0.11100000    5.43900000 L
 C-CT--0.007000  0   47.54400000   -1.19900000    3.94000000 L
 C-CT-0.018900   0   48.17600000   -2.22200000    2.99700000 L
 C-CT-0.019200   0   47.00100000   -2.66700000    2.12800000 L
 H-H1-0.064100   0   46.15800000   -2.27800000    5.01100000 L
 H-HC-0.025300  0   47.53700000   -0.29700000    3.51500000 L
 H-HC-0.025300  0   48.04600000   -1.16600000    4.80000000 L
 H-HC-0.021300  0   48.87900000   -1.79200000    2.44900000 L
 H-HC-0.021300  0   48.54100000   -2.98200000    3.51500000 L
 H-H1-0.039100  0   46.90000000   -2.06300000    1.33300000 L
 H-H1-0.039100  0   47.13800000   -3.60800000    1.80300000 L
 N-N--0.415700    0   44.48900000   -0.09900000    3.23400000 L
 C-CT--0.038900  0   43.53600000    1.01800000    3.23900000 L
 C-C-0.597300     0   42.39400000    0.80300000    4.21700000 L
 O-O--0.567900    0   41.95600000    1.73000000    4.89600000 L
 C-CT-0.365400   0   42.98000000    1.31300000    1.84800000 L
 O-OH--0.676100  0   44.01800000    1.75100000    0.98600000 L
 C-CT--0.243800  0   41.91800000    2.42800000    1.85400000 L
 H-H-0.271900     0   44.73400000   -0.62400000    2.34600000 L
 H-H1-0.100700   0   44.03600000    1.85600000    3.50800000 L
 H-H1-0.004300   0   42.58200000    0.45100000    1.46000000 L
 H-HC-0.064200  0   41.01300000    2.02400000    1.72400000 L
 H-HC-0.064200  0   41.94800000    2.90900000    2.73000000 L
 H-HC-0.064200  0   42.10800000    3.07000000    1.11200000 L
 H-HO-0.410200  0   43.71500000    1.73300000    0.02500000 L
 N-N--0.415700    0   41.93300000   -0.45300000    4.39300000 L
 C-CT--0.051800  0   40.91000000   -0.81500000    5.36600000 L
 C-C-0.597300     0   41.37800000   -0.74300000    6.81400000 L
 O-O--0.567900    0   40.57400000   -0.81400000    7.74000000 L
 C-CT--0.110200  0   40.42800000   -2.26500000    5.14500000 L
 C-CT-0.353100   0   39.66600000   -2.51000000    3.83500000 L
 C-CT--0.412100  0   39.46100000   -4.01600000    3.64800000 L
 C-CT--0.412100  0   38.32000000   -1.76900000    3.80200000 L
 H-H-0.271900     0   42.38800000   -1.15400000    3.75400000 L
 H-H1-0.092200   0   40.12200000   -0.17800000    5.25500000 L
 H-HC-0.045700  0   41.22800000   -2.85000000    5.13900000 L
 H-HC-0.045700  0   39.82200000   -2.49800000    5.89200000 L
 H-HC--0.036100  0   40.19900000   -2.15400000    3.07800000 L
 H-HC-0.100000  0   38.93400000   -4.37500000    4.41700000 L
 H-HC-0.100000  0   38.96500000   -4.17800000    2.79600000 L
 H-HC-0.100000  0   40.35100000   -4.46800000    3.61000000 L
 H-HC-0.100000  0   38.48400000   -0.78800000    3.89100000 L
 H-HC-0.100000  0   37.86400000   -1.95800000    2.93500000 L
 H-HC-0.100000  0   37.75300000   -2.08700000    4.55900000 L
 N-N--0.347900    0   42.69400000   -0.62800000    7.05500000 L
 C-CT--0.263700  0   43.26500000   -0.51500000    8.37800000 L
 C-C-0.734100     0   43.86400000    0.86000000    8.60700000 L
 O-O--0.589400    0   44.49800000    1.11300000    9.62900000 L
 C-CT--0.000700  0   44.32700000   -1.62700000    8.59800000 L
 C-CT-0.039000   0   43.71400000   -3.02800000    8.82700000 L
 C-CT-0.048600   0   42.81900000   -3.02700000   10.06800000 L
 N-N2--0.529500  0   42.37500000   -4.40900000   10.41800000 L
 C-CA-0.807600   0   41.59600000   -4.61000000   11.49000000 L
 N-N2--0.862700  0   41.15200000   -3.59000000   12.21500000 L
 N-N2--0.862700  0   41.21700000   -5.83400000   11.84300000 L
 H-H-0.274700     0   43.27600000   -0.62800000    6.17500000 L
 H-H1-0.156000   0   42.53800000   -0.66700000    9.06500000 L
 H-HC-0.032700  0   44.89600000   -1.67300000    7.79100000 L
 H-HC-0.032700  0   44.85600000   -1.39300000    9.39900000 L
 H-HC-0.028500  0   43.16200000   -3.27100000    8.04300000 L
 H-HC-0.028500  0   44.44400000   -3.68000000    8.96900000 L
 H-H1-0.068700  0   43.33600000   -2.65800000   10.82700000 L
 H-H1-0.068700  0   42.02000000   -2.47600000    9.87600000 L
 H-H-0.345600    0   42.65700000   -5.15200000    9.86300000 L
 H-H-0.447800  0   41.37800000   -2.65200000   11.95700000 L
 H-H-0.447800  0   40.58600000   -3.76100000   13.02400000 L
 H-H-0.447800  0   41.51200000   -6.61100000   11.27500000 L
 H-H-0.447800  0   40.65600000   -5.97900000   12.64600000 L
 N-N--0.415700    0   43.62500000    1.80200000    7.68000000 L
 C-CT--0.038900  0   44.10300000    3.17300000    7.78500000 L
 C-C-0.597300     0   42.97100000    4.04300000    8.28500000 L
 O-O--0.567900    0   41.80600000    3.84600000    7.95500000 L
 C-CT-0.365400   0   44.62400000    3.72000000    6.45800000 L
 O-OH--0.676100  0   45.72100000    2.93800000    6.01800000 L
 C-CT--0.243800  0   45.18900000    5.14400000    6.56000000 L
 H-H-0.271900     0   43.05800000    1.45500000    6.86700000 L
 H-H1-0.100700   0   44.84700000    3.20100000    8.45200000 L
 H-H1-0.004300   0   43.88000000    3.65500000    5.75800000 L
 H-HC-0.064200  0   44.44700000    5.80600000    6.45100000 L
 H-HC-0.064200  0   45.61800000    5.26900000    7.45500000 L
 H-HC-0.064200  0   45.87000000    5.28500000    5.84100000 L
 H-HO-0.410200  0   45.43400000    1.98800000    5.83800000 L
 N-N--0.415700    0   43.27900000    5.05100000    9.12400000 L
 C-CT--0.087500  0   42.30800000    6.05100000    9.53700000 L
 C-C-0.597300     0   42.08700000    7.02200000    8.39000000 L
 O-O--0.567900    0   43.01700000    7.66700000    7.91300000 L
 C-CT-0.298500   0   42.75100000    6.80500000   10.78700000 L
 C-CT--0.319200  0   41.69000000    7.84500000   11.20800000 L
 C-CT--0.319200  0   42.97700000    5.78600000   11.91900000 L
 H-H-0.271900     0   44.27200000    5.04300000    9.44500000 L
 H-H1-0.096900   0   41.44100000    5.59000000    9.72500000 L
 H-HC--0.029700  0   43.57400000    7.32100000   10.56800000 L
 H-HC-0.079100  0   40.79100000    7.52100000   10.92700000 L
 H-HC-0.079100  0   41.72000000    7.95400000   12.19800000 L
 H-HC-0.079100  0   41.89400000    8.71300000   10.76300000 L
 H-HC-0.079100  0   42.09100000    5.46000000   12.23900000 L
 H-HC-0.079100  0   43.51500000    5.02600000   11.56400000 L
 H-HC-0.079100  0   43.46700000    6.23500000   12.66200000 L
 N-N--0.415700    0   40.84400000    7.11200000    7.88800000 L