%nprocshared=8
%mem=2GB
%chk=complex.chk
# opt oniom(b3lyp/6-31g(d):amber=hardfirst)

Title Card Required

-2 1 0 1 0 1
 N-N3-0.130500    0   -4.96600000  -30.19400000   28.78600000 L
 C-CT--0.022300  0   -3.97200000  -30.81100000   29.73000000 L
 C-C-0.721400     0   -4.09200000  -30.13800000   31.08100000 L
 O-O--0.601300    0   -4.42400000  -28.96000000   31.12900000 L
 C-CT-0.011800   0   -2.51600000  -30.65200000   29.18200000 L
 C-CT-0.023600   0   -2.07500000  -31.67800000   28.10700000 L
 C-CT-0.093500   0   -0.66800000  -31.39100000   27.53800000 L
 N-N2--0.565000  0   -0.28000000  -32.51500000   26.62300000 L
 C-CA-0.828100   0    0.85300000  -32.54000000   25.90100000 L
 N-N2--0.869300  0    1.76100000  -31.57100000   25.97200000 L
 N-N2--0.869300  0    1.08500000  -33.57100000   25.09000000 L
 H-H-0.208300    0   -5.85000000  -30.14400000   29.23900000 L
 H-HP-0.124200   0   -4.19500000  -31.77800000   29.81500000 L
 H-HC-0.022600  0   -2.44000000  -29.74100000   28.78200000 L
 H-HC-0.022600  0   -1.89000000  -30.73400000   29.95500000 L
 H-HC-0.030900  0   -2.06200000  -32.58900000   28.51300000 L
 H-HC-0.030900  0   -2.72300000  -31.65300000   27.34900000 L
 H-H1-0.052700  0   -0.70800000  -30.56300000   27.02300000 L
 H-H1-0.052700  0   -0.03700000  -31.35700000   28.28300000 L
 H-H-0.359200    0   -0.90800000  -33.28600000   26.55300000 L
 H-H-0.449400  0    1.61000000  -30.80300000   26.59800000 L
 H-H-0.449400  0    2.58200000  -31.60900000   25.41100000 L
 H-H-0.449400  0    0.42800000  -34.32300000   25.04000000 L
 H-H-0.449400  0    1.91500000  -33.59200000   24.53400000 L
 H-H-0.208300    0   -4.65300000  -29.28200000   28.54300000 L
 H-H-0.208300    0   -5.03000000  -30.76200000   27.97200000 L
 N-N--0.415700    0   -3.86400000  -30.88000000   32.18500000 L
 C-CT-0.018800   0   -3.83300000  -30.35600000   33.54600000 L
 C-C-0.597300     0   -2.72200000  -29.33700000   33.78400000 L
 O-O--0.567900    0   -1.65300000  -29.42400000   33.19000000 L
 C-CT--0.046200  0   -3.69600000  -31.51900000   34.55700000 L
 C-CC--0.026600  0   -3.58400000  -31.09100000   35.98100000 L
 N-NA--0.381100  0   -2.43900000  -31.39400000   36.68100000 L
 C-CV-0.129200  0   -4.49300000  -30.48100000   36.78500000 L
 C-CR-0.205700  0   -2.66500000  -30.95800000   37.90700000 L
 N-NB--0.572700  0   -3.89300000  -30.39600000   38.02200000 L
 H-H-0.271900     0   -3.70600000  -31.90200000   31.96600000 L
 H-H1-0.088100   0   -4.72300000  -29.90000000   33.73200000 L
 H-HC-0.040200  0   -4.50100000  -32.11900000   34.46200000 L
 H-HC-0.040200  0   -2.87600000  -32.05400000   34.31600000 L
 H-H-0.364900   0   -1.63900000  -31.83300000   36.34300000 L
 H-H4-0.114700  0   -5.39200000  -30.16500000   36.53800000 L
 H-H5-0.139200  0   -2.01500000  -31.02600000   38.67800000 L
 N-N--0.415700    0   -2.96700000  -28.34900000   34.66600000 L
 C-CT--0.023700  0   -2.01300000  -27.31200000   34.99800000 L
 C-C-0.597300     0   -2.13200000  -27.00300000   36.48200000 L
 O-O--0.567900    0   -3.15000000  -27.25300000   37.11900000 L
 C-CT-0.034200   0   -2.23200000  -26.03400000   34.13700000 L
 C-CT-0.001800   0   -1.21400000  -24.88400000   34.33900000 L
 S-S--0.273700   0    0.54500000  -25.37100000   34.29600000 L
 C-CT--0.053600  0    0.62800000  -25.58900000   32.50500000 L
 H-H-0.271900     0   -3.92800000  -28.40600000   35.09300000 L
 H-H1-0.088000   0   -1.09200000  -27.66000000   34.82800000 L
 H-HC-0.024100  0   -2.21300000  -26.29800000   33.15900000 L
 H-HC-0.024100  0   -3.15700000  -25.66900000   34.33300000 L
 H-H1-0.044000  0   -1.40900000  -24.16400000   33.62200000 L
 H-H1-0.044000  0   -1.44000000  -24.41800000   35.23500000 L
 H-H1-0.068400  0   -0.12000000  -26.18200000   32.21100000 L
 H-H1-0.068400  0    0.54600000  -24.69800000   32.06200000 L
 H-H1-0.068400  0    1.50300000  -26.00600000   32.26500000 L
 N-N--0.415700    0   -1.04800000  -26.47900000   37.08700000 L
 C-CT--0.051800  0   -0.99900000  -26.03400000   38.46400000 L
 C-C-0.597300     0   -1.96600000  -24.87400000   38.71200000 L
 O-O--0.567900    0   -1.91000000  -23.87200000   38.01200000 L
 C-CT--0.110200  0    0.44000000  -25.55300000   38.79900000 L
 C-CT-0.353100   0    1.57000000  -26.55900000   38.48000000 L
 C-CT--0.412100  0    2.93600000  -25.85900000   38.49800000 L
 C-CT--0.412100  0    1.58700000  -27.75600000   39.43900000 L
 H-H-0.271900     0   -0.21000000  -26.42200000   36.43800000 L
 H-H1-0.092200   0   -1.26800000  -26.79900000   39.06500000 L
 H-HC-0.045700  0    0.61300000  -24.73600000   38.26800000 L
 H-HC-0.045700  0    0.47500000  -25.36600000   39.76900000 L
 H-HC--0.036100  0    1.40900000  -26.94600000   37.57600000 L
 H-HC-0.100000  0    3.09200000  -25.46900000   39.40300000 L
 H-HC-0.100000  0    3.64900000  -26.52600000   38.29000000 L
 H-HC-0.100000  0    2.94200000  -25.13400000   37.81200000 L
 H-HC-0.100000  0    0.71600000  -28.24100000   39.37500000 L
 H-HC-0.100000  0    2.33400000  -28.36900000   39.18600000 L
 H-HC-0.100000  0    1.72200000  -27.42700000   40.37200000 L
 N-N--0.516300    0   -2.88100000  -24.96000000   39.70800000 L
 C-CT-0.038100   0   -3.80000000  -23.86000000   39.98500000 L
 C-C-0.536600     0   -3.08800000  -22.60900000   40.49900000 L
 O-O--0.581900    0   -3.32600000  -21.49400000   40.03100000 L
 C-CT--0.030300  0   -4.87500000  -24.30500000   41.02400000 L
 C-C-0.799400    0   -5.90300000  -23.19700000   41.26000000 L
 O-O2--0.801400  0   -5.80700000  -22.49000000   42.29100000 L
 O-O2--0.801400  0   -6.75600000  -22.96500000   40.36800000 L
 H-H-0.293600     0   -2.86200000  -25.84800000   40.23000000 L
 H-H1-0.088000   0   -4.23900000  -23.60900000   39.10700000 L
 H-HC--0.012200  0   -5.33200000  -25.09400000   40.65800000 L
 H-HC--0.012200  0   -4.41100000  -24.49800000   41.86700000 L
 N-N--0.347900    0   -2.19100000  -22.79200000   41.48400000 L
 C-CT--0.240000  0   -1.61200000  -21.69400000   42.21700000 L
 C-C-0.734100     0   -0.21600000  -22.04600000   42.67700000 L
 O-O--0.589400    0    0.01400000  -23.14500000   43.18200000 L
 C-CT--0.009400  0   -2.50700000  -21.38500000   43.43900000 L
 C-CT-0.018700   0   -2.08700000  -20.15300000   44.24700000 L
 C-CT--0.047900  0   -2.95600000  -19.92100000   45.49200000 L
 C-CT--0.014300  0   -4.43900000  -19.65300000   45.20900000 L
 N-N3--0.385400  0   -5.07200000  -19.14300000   46.43900000 L
 H-H-0.274700     0   -1.96100000  -23.79600000   41.66000000 L
 H-H1-0.142600   0   -1.56100000  -20.88500000   41.61700000 L
 H-HC-0.036200  0   -3.43800000  -21.24000000   43.10900000 L
 H-HC-0.036200  0   -2.48500000  -22.17900000   44.04400000 L
 H-HC-0.010300  0   -1.13300000  -20.26700000   44.54100000 L
 H-HC-0.010300  0   -2.14900000  -19.34100000   43.65900000 L
 H-HC-0.062100  0   -2.89000000  -20.73500000   46.08200000 L
 H-HC-0.062100  0   -2.58500000  -19.13300000   45.99700000 L
 H-HP-0.113500  0   -4.50500000  -18.97600000   44.48800000 L
 H-HP-0.113500  0   -4.86700000  -20.50400000   44.93500000 L
 H-H-0.340000   0   -5.14400000  -18.14500000   46.39400000 L
 H-H-0.340000   0   -5.98900000  -19.53500000   46.53500000 L
 H-H-0.340000   0   -4.51900000  -19.39800000   47.23500000 L
 N-N--0.415700    0    0.76200000  -21.12500000   42.52800000 L
 C-CT--0.059700  0    2.12600000  -21.38600000   42.96700000 L
 C-C-0.597300     0    2.69200000  -20.27100000   43.83100000 L
 O-O--0.567900    0    2.34600000  -19.09600000   43.71100000 L
 C-CT-0.130300   0    3.12600000  -21.72400000   41.85300000 L
 C-CT--0.043000  0    3.57300000  -20.52400000   40.98600000 L
 C-CT--0.320400  0    2.57500000  -22.86900000   40.97600000 L
 C-CT--0.066000  0    5.07800000  -20.56400000   40.69200000 L
 H-H-0.271900     0    0.45300000  -20.24300000   42.08400000 L
 H-H1-0.086900   0    2.08200000  -22.21100000   43.55200000 L
 H-HC-0.018700   0    3.95700000  -22.10900000   42.28400000 L
 H-HC-0.023600  0    3.08000000  -20.55200000   40.13300000 L
 H-HC-0.023600  0    3.37000000  -19.69300000   41.47900000 L
 H-HC-0.088200  0    3.28900000  -23.17000000   40.35200000 L
 H-HC-0.088200  0    2.29800000  -23.62200000   41.56500000 L
 H-HC-0.088200  0    1.79200000  -22.53300000   40.46100000 L
 H-HC-0.018600  0    5.28700000  -21.40600000   40.20300000 L
 H-HC-0.018600  0    5.31700000  -19.77500000   40.13400000 L
 H-HC-0.018600  0    5.57400000  -20.53600000   41.55500000 L
 N-N--0.415700    0    3.62500000  -20.64300000   44.72900000 L
 C-CT--0.087500  0    4.43400000  -19.71400000   45.49500000 L
 C-C-0.597300     0    5.70400000  -19.42800000   44.72600000 L
 O-O--0.567900    0    6.46300000  -20.32100000   44.35000000 L
 C-CT-0.298500   0    4.75800000  -20.23600000   46.89300000 L
 C-CT--0.319200  0    5.87100000  -19.42500000   47.59100000 L
 C-CT--0.319200  0    3.47800000  -20.17900000   47.74400000 L
 H-H-0.271900     0    3.71100000  -21.69000000   44.82200000 L
 H-H1-0.096900   0    3.92600000  -18.85800000   45.58900000 L
 H-HC--0.029700  0    5.10800000  -21.17200000   46.80600000 L
 H-HC-0.079100  0    6.58200000  -20.05100000   47.89900000 L
 H-HC-0.079100  0    6.25000000  -18.77100000   46.94200000 L
 H-HC-0.079100  0    5.48000000  -18.94400000   48.37100000 L
 H-HC-0.079100  0    2.79600000  -19.63400000   47.26300000 L
 H-HC-0.079100  0    3.14100000  -21.10700000   47.88100000 L
 H-HC-0.079100  0    3.69400000  -19.76000000   48.62300000 L
 N-N--0.415700    0    5.96300000  -18.13400000   44.47100000 L
 C-CT--0.059700  0    7.19900000  -17.68200000   43.86500000 L
 C-C-0.597300     0    8.16600000  -17.37000000   44.99900000 L
 O-O--0.567900    0    8.12900000  -16.30200000   45.60200000 L
 C-CT-0.130300   0    6.97500000  -16.46500000   42.96800000 L
 C-CT--0.043000  0    5.88300000  -16.75600000   41.90400000 L
 C-CT--0.320400  0    8.31500000  -16.07100000   42.30600000 L
 C-CT--0.066000  0    5.46100000  -15.52200000   41.09500000 L
 H-H-0.271900     0    5.18800000  -17.48800000   44.75200000 L
 H-H1-0.086900   0    7.57800000  -18.45900000   43.37700000 L
 H-HC-0.018700   0    6.64700000  -15.71300000   43.53000000 L
 H-HC-0.023600  0    6.23300000  -17.44500000   41.27900000 L
 H-HC-0.023600  0    5.08300000  -17.11500000   42.37500000 L
 H-HC-0.088200  0    8.17500000  -15.25300000   41.75800000 L
 H-HC-0.088200  0    8.98600000  -15.89300000   43.01900000 L
 H-HC-0.088200  0    8.62100000  -16.82100000   41.72800000 L
 H-HC-0.018600  0    6.25800000  -15.16300000   40.61900000 L
 H-HC-0.018600  0    4.76200000  -15.79200000   40.43900000 L
 H-HC-0.018600  0    5.09800000  -14.83800000   41.72000000 L
 N-N--0.415700    0    9.05100000  -18.33100000   45.34300000 L
 C-CT-0.033700   0    9.96100000  -18.25200000   46.47100000 L
 C-C-0.597300     0   11.26800000  -17.57200000   46.09000000 L
 O-O--0.567900    0   12.35800000  -18.12300000   46.21100000 L
 C-CT--0.182500  0   10.20600000  -19.66300000   47.04700000 L
 H-H-0.271900     0    9.01500000  -19.16700000   44.69400000 L
 H-H1-0.082300   0    9.52300000  -17.71500000   47.20700000 L
 H-HC-0.060300  0    9.50200000  -19.86300000   47.72300000 L
 H-HC-0.060300  0   10.16500000  -20.32700000   46.30500000 L
 H-HC-0.060300  0   11.10500000  -19.68600000   47.47500000 L
 N-N--0.415700    0   11.15600000  -16.33000000   45.59000000 L
 C-CT-0.014300   0   12.27400000  -15.56100000   45.10800000 L
 C-C-0.597300     0   11.85300000  -14.10000000   45.02800000 L
 O-O--0.567900    0   10.72400000  -13.74100000   45.34200000 L
 C-CT--0.204100  0   12.80800000  -16.09900000   43.75300000 L
 C-C-0.713000    0   14.32500000  -15.97800000   43.70700000 L
 H-H-0.271900     0   10.16400000  -15.97500000   45.58600000 L
 H-H1-0.104800   0   13.00000000  -15.61600000   45.79200000 L
 H-HC-0.079700  0   12.56000000  -17.04600000   43.68100000 L
 H-HC-0.079700  0   12.42100000  -15.55300000   43.03400000 L
 O-O--0.593100  0   14.88200000  -14.86800000   43.76500000 L
 N-N--0.919100  0   15.03400000  -17.11300000   43.63000000 L
 H-H-0.419600  0   14.53700000  -17.98500000   43.60000000 L
 H-H-0.419600  0   16.02100000  -17.08700000   43.60300000 L
 N-N--0.347900    0   12.77500000  -13.21700000   44.61100000 L
 C-CT--0.263700  0   12.56300000  -11.79000000   44.57000000 L
 C-C-0.734100     0   13.12200000  -11.20200000   43.28400000 L
 O-O--0.589400    0   13.66100000  -11.91000000   42.43600000 L
 C-CT--0.000700  0   13.20600000  -11.11700000   45.80100000 L
 C-CT-0.039000   0   14.74400000  -11.23200000   45.85500000 L
 C-CT-0.048600   0   15.39200000  -10.46800000   47.01400000 L
 N-N2--0.529500  0   14.93300000   -9.04800000   46.95900000 L
 C-CA-0.807600   0   15.42200000   -8.07900000   46.17800000 L
 N-N2--0.862700  0   16.39900000   -8.30600000   45.30600000 L
 N-N2--0.862700  0   14.91400000   -6.85300000   46.28200000 L
 H-H-0.274700     0   13.67800000  -13.67400000   44.31300000 L
 H-H1-0.156000   0   11.57400000  -11.60100000   44.60400000 L
 H-HC-0.032700  0   12.97500000  -10.15200000   45.78400000 L
 H-HC-0.032700  0   12.84200000  -11.54900000   46.61700000 L
 H-HC-0.028500  0   14.99500000  -12.20100000   45.94200000 L
 H-HC-0.028500  0   15.12700000  -10.87600000   44.99700000 L
 H-H1-0.068700  0   15.09300000  -10.86500000   47.85500000 L
 H-H1-0.068700  0   16.36200000  -10.49200000   46.89800000 L
 H-H-0.345600    0   14.16800000   -8.79900000   47.58400000 L
 H-H-0.447800  0   16.77200000   -9.23000000   45.21100000 L
 H-H-0.447800  0   16.75800000   -7.56000000   44.74900000 L
 H-H-0.447800  0   14.16700000   -6.66900000   46.91900000 L
 H-H-0.447800  0   15.28200000   -6.11200000   45.71700000 L
 N-N--0.415700    0   12.98700000   -9.86900000   43.09200000 L
 C-CT--0.025200  0   13.55000000   -9.15500000   41.94300000 L
 C-C-0.597300     0   13.14100000   -9.63200000   40.56400000 L
 O-O--0.567900    0   11.98200000   -9.95500000   40.31300000 L
 H-H-0.271900     0   12.43900000   -9.39300000   43.84700000 L
 H-H1-0.069800  0   13.31500000   -8.15200000   42.03500000 L
 H-H1-0.069800  0   14.58100000   -9.18200000   42.01500000 L
 N-N--0.516300    0   14.09600000   -9.62800000   39.60600000 L
 C-CT-0.039700   0   13.82800000   -9.90600000   38.20500000 L
 C-C-0.536600     0   13.30600000  -11.30600000   37.93900000 L
 O-O--0.581900    0   12.33300000  -11.48200000   37.20900000 L
 C-CT-0.056000   0   15.03600000   -9.54900000   37.28800000 L
 C-CT-0.013600   0   16.26600000  -10.50100000   37.30600000 L
 C-C-0.805400    0   16.16000000  -11.73800000   36.40900000 L
 O-O2--0.818800  0   15.26500000  -11.83000000   35.53900000 L
 O-O2--0.818800  0   17.04300000  -12.63300000   36.52600000 L
 H-H-0.293600     0   15.05200000   -9.40400000   39.97600000 L
 H-H1-0.110500   0   13.15600000   -9.22300000   37.84800000 L
 H-HC--0.017300  0   14.70100000   -9.52700000   36.35300000 L
 H-HC--0.017300  0   15.36100000   -8.65100000   37.56200000 L
 H-HC--0.042500  0   17.05000000   -9.97800000   37.00400000 L
 H-HC--0.042500  0   16.38500000  -10.81600000   38.23700000 L
 N-N--0.415700    0   13.88700000  -12.34400000   38.58300000 L
 C-CT--0.059700  0   13.46500000  -13.71800000   38.38600000 L
 C-C-0.597300     0   12.06800000  -13.98400000   38.90200000 L
 O-O--0.567900    0   11.28200000  -14.68900000   38.27400000 L
 C-CT-0.130300   0   14.49000000  -14.73500000   38.87100000 L
 C-CT--0.043000  0   14.24000000  -16.16200000   38.31500000 L
 C-CT--0.320400  0   14.63200000  -14.73600000   40.40800000 L
 C-CT--0.066000  0   14.37900000  -16.28800000   36.79000000 L
 H-H-0.271900     0   14.65700000  -12.05900000   39.22500000 L
 H-H1-0.086900   0   13.43800000  -13.86600000   37.38400000 L
 H-HC-0.018700   0   15.39900000  -14.45000000   38.55300000 L
 H-HC-0.023600  0   14.88900000  -16.78300000   38.74800000 L
 H-HC-0.023600  0   13.31400000  -16.43500000   38.57100000 L
 H-HC-0.088200  0   15.40100000  -15.31400000   40.66100000 L
 H-HC-0.088200  0   14.79000000  -13.80400000   40.71800000 L
 H-HC-0.088200  0   13.79300000  -15.09000000   40.80900000 L
 H-HC-0.018600  0   15.30400000  -16.02800000   36.53100000 L
 H-HC-0.018600  0   14.20200000  -17.23200000   36.53000000 L
 H-HC-0.018600  0   13.71800000  -15.68300000   36.35800000 L
 N-N--0.415700    0   11.67900000  -13.36500000   40.03500000 L
 C-CT-0.033700   0   10.32500000  -13.44600000   40.53200000 L
 C-C-0.597300     0    9.30000000  -12.85100000   39.57500000 L
 O-O--0.567900    0    8.23800000  -13.42900000   39.33800000 L
 C-CT--0.182500  0   10.24200000  -12.76900000   41.90300000 L
 H-H-0.271900     0   12.44200000  -12.83300000   40.50500000 L
 H-H1-0.082300   0   10.08700000  -14.42400000   40.68400000 L
 H-HC-0.060300  0   11.04800000  -13.01100000   42.43900000 L
 H-HC-0.060300  0   10.20500000  -11.77900000   41.78000000 L
 H-HC-0.060300  0    9.41900000  -13.08000000   42.37500000 L
 N-N--0.415700    0    9.62400000  -11.70100000   38.95200000 L
 C-CT--0.051800  0    8.84400000  -11.12000000   37.87300000 L
 C-C-0.597300     0    8.80600000  -11.97500000   36.60500000 L
 O-O--0.567900    0    7.75200000  -12.15400000   35.99400000 L
 C-CT--0.110200  0    9.34300000   -9.69000000   37.57800000 L
 C-CT-0.353100   0    8.55800000   -8.90600000   36.50500000 L
 C-CT--0.412100  0    7.05800000   -8.77300000   36.80900000 L
 C-CT--0.412100  0    9.18200000   -7.51800000   36.36700000 L
 H-H-0.271900     0   10.50300000  -11.26100000   39.32600000 L
 H-H1-0.092200   0    7.88600000  -10.99500000   38.19600000 L
 H-HC-0.045700  0    9.28700000   -9.16900000   38.42200000 L
 H-HC-0.045700  0   10.28300000   -9.75500000   37.26700000 L
 H-HC--0.036100  0    8.67300000   -9.37300000   35.61700000 L
 H-HC-0.100000  0    6.94100000   -8.29300000   37.67600000 L
 H-HC-0.100000  0    6.62000000   -8.25700000   36.07500000 L
 H-HC-0.100000  0    6.65500000   -9.68400000   36.87000000 L
 H-HC-0.100000  0   10.13900000   -7.61000000   36.09200000 L
 H-HC-0.100000  0    8.68300000   -6.99800000   35.67400000 L
 H-HC-0.100000  0    9.13000000   -7.04300000   37.24500000 L
 N-N--0.347900    0    9.94600000  -12.57400000   36.19800000 L
 C-CT--0.263700  0   10.03700000  -13.50100000   35.07800000 L
 C-C-0.734100     0    9.14700000  -14.73200000   35.26200000 L
 O-O--0.589400    0    8.44100000  -15.13800000   34.33700000 L
 C-CT--0.000700  0   11.51300000  -13.94900000   34.87000000 L
 C-CT-0.039000   0   11.75900000  -15.01400000   33.77500000 L
 C-CT-0.048600   0   11.62800000  -14.51200000   32.33100000 L
 N-N2--0.529500  0   11.59300000  -15.71500000   31.41800000 L
 C-CA-0.807600   0   10.46000000  -16.28200000   30.98000000 L
 N-N2--0.862700  0    9.26000000  -15.99700000   31.47800000 L
 N-N2--0.862700  0   10.52500000  -17.19500000   30.02000000 L
 H-H-0.274700     0   10.78300000  -12.30100000   36.78100000 L
 H-H1-0.156000   0    9.74800000  -13.02200000   34.23300000 L
 H-HC-0.032700  0   12.04800000  -13.13900000   34.63100000 L
 H-HC-0.032700  0   11.84500000  -14.32300000   35.73600000 L
 H-HC-0.028500  0   12.68800000  -15.38900000   33.89000000 L
 H-HC-0.028500  0   11.10000000  -15.76700000   33.90200000 L
 H-H1-0.068700  0   10.78600000  -14.03100000   32.24100000 L
 H-H1-0.068700  0   12.41400000  -13.98000000   32.11200000 L
 H-H-0.345600    0   12.46600000  -16.09500000   31.13600000 L
 H-H-0.447800  0    9.19700000  -15.30700000   32.20700000 L
 H-H-0.447800  0    8.45000000  -16.45200000   31.13800000 L
 H-H-0.447800  0   11.40700000  -17.44100000   29.61600000 L
 H-H-0.447800  0    9.68900000  -17.64100000   29.69500000 L
 N-N--0.415700    0    9.15100000  -15.32400000   36.48000000 L
 C-CT--0.059700  0    8.28300000  -16.42500000   36.89000000 L
 C-C-0.597300     0    6.82400000  -16.00300000   36.92300000 L
 O-O--0.567900    0    5.95600000  -16.70400000   36.40400000 L
 C-CT-0.130300   0    8.73800000  -17.04300000   38.22000000 L
 C-CT--0.043000  0   10.13800000  -17.69000000   38.06800000 L
 C-CT--0.320400  0    7.72900000  -18.10100000   38.72700000 L
 C-CT--0.066000  0   10.86300000  -17.91100000   39.40300000 L
 H-H-0.271900     0    9.87100000  -14.89700000   37.13300000 L
 H-H1-0.086900   0    8.36500000  -17.12900000   36.17400000 L
 H-HC-0.018700   0    8.81600000  -16.31700000   38.89300000 L
 H-HC-0.023600  0   10.02900000  -18.56700000   37.61400000 L
 H-HC-0.023600  0   10.69500000  -17.09100000   37.50200000 L
 H-HC-0.088200  0    8.03800000  -18.44300000   39.60800000 L
 H-HC-0.088200  0    6.83600000  -17.67400000   38.82000000 L
 H-HC-0.088200  0    7.68500000  -18.84400000   38.06800000 L
 H-HC-0.018600  0   10.31100000  -18.51300000   39.97100000 L
 H-HC-0.018600  0   11.74900000  -18.32700000   39.22100000 L
 H-HC-0.018600  0   10.98300000  -17.03100000   39.85200000 L
 N-N--0.415700    0    6.51300000  -14.80600000   37.46300000 L
 C-CT--0.051800  0    5.16700000  -14.26000000   37.48800000 L
 C-C-0.597300     0    4.54900000  -14.10700000   36.10400000 L
 O-O--0.567900    0    3.39900000  -14.48400000   35.88900000 L
 C-CT--0.110200  0    5.15400000  -12.90100000   38.23000000 L
 C-CT-0.353100   0    3.77200000  -12.22400000   38.33600000 L
 C-CT--0.412100  0    3.45300000  -11.84900000   39.78600000 L
 C-CT--0.412100  0    3.69100000  -10.97500000   37.44500000 L
 H-H-0.271900     0    7.34400000  -14.30500000   37.86600000 L
 H-H1-0.092200   0    4.57500000  -14.88400000   38.03200000 L
 H-HC-0.045700  0    5.47800000  -13.05800000   39.15100000 L
 H-HC-0.045700  0    5.75000000  -12.28400000   37.73900000 L
 H-HC--0.036100  0    3.07700000  -12.85700000   37.99800000 L
 H-HC-0.100000  0    4.14800000  -11.21600000   40.12300000 L
 H-HC-0.100000  0    2.55500000  -11.41400000   39.82400000 L
 H-HC-0.100000  0    3.45000000  -12.67500000   40.34700000 L
 H-HC-0.100000  0    3.84500000  -11.24000000   36.49500000 L
 H-HC-0.100000  0    2.78600000  -10.56400000   37.53900000 L
 H-HC-0.100000  0    4.39000000  -10.32200000   37.73200000 L
 N-N--0.347900    0    5.30600000  -13.59900000   35.10700000 L
 C-CT--0.263700  0    4.83100000  -13.50600000   33.73300000 L
 C-C-0.734100     0    4.48900000  -14.85700000   33.11600000 L
 O-O--0.589400    0    3.41700000  -15.02400000   32.53500000 L
 C-CT--0.000700  0    5.85800000  -12.79000000   32.82000000 L
 C-CT-0.039000   0    6.05800000  -11.29300000   33.13500000 L
 C-CT-0.048600   0    7.03200000  -10.62600000   32.15600000 L
 N-N2--0.529500  0    7.17300000   -9.18300000   32.55200000 L
 C-CA-0.807600   0    8.34000000   -8.53100000   32.67800000 L
 N-N2--0.862700  0    9.51800000   -9.13800000   32.57900000 L
 N-N2--0.862700  0    8.32100000   -7.21800000   32.91300000 L
 H-H-0.274700     0    6.25000000  -13.28500000   35.41400000 L
 H-H1-0.156000   0    3.99600000  -12.92500000   33.71600000 L
 H-HC-0.032700  0    6.73500000  -13.24300000   32.92800000 L
 H-HC-0.032700  0    5.54100000  -12.86300000   31.88200000 L
 H-HC-0.028500  0    5.18200000  -10.82600000   33.06800000 L
 H-HC-0.028500  0    6.43000000  -11.20100000   34.05300000 L
 H-H1-0.068700  0    7.90100000  -11.05900000   32.23600000 L
 H-H1-0.068700  0    6.65100000  -10.66900000   31.26000000 L
 H-H-0.345600    0    6.32500000   -8.67800000   32.73400000 L
 H-H-0.447800  0    9.54000000  -10.12300000   32.38200000 L
 H-H-0.447800  0   10.36100000   -8.62700000   32.69600000 L
 H-H-0.447800  0    7.45100000   -6.73100000   32.97300000 L
 H-H-0.447800  0    9.18200000   -6.72100000   33.02800000 L
 N-N--0.415700    0    5.36200000  -15.86800000   33.30400000 L
 C-CT-0.033700   0    5.15600000  -17.21700000   32.81700000 L
 C-C-0.597300     0    3.93100000  -17.89100000   33.42200000 L
 O-O--0.567900    0    3.16500000  -18.56600000   32.73500000 L
 C-CT--0.182500  0    6.41300000  -18.05300000   33.11100000 L
 H-H-0.271900     0    6.21800000  -15.57600000   33.84600000 L
 H-H1-0.082300   0    5.03700000  -17.18700000   31.80700000 L
 H-HC-0.060300  0    6.19700000  -19.01900000   32.99300000 L
 H-HC-0.060300  0    7.13600000  -17.78800000   32.47800000 L
 H-HC-0.060300  0    6.70600000  -17.88300000   34.04900000 L
 N-N--0.415700    0    3.69900000  -17.68400000   34.73600000 L
 C-CT-0.021300   0    2.49200000  -18.11700000   35.41900000 L
 C-C-0.597300     0    1.22800000  -17.48900000   34.86600000 L
 O-O--0.567900    0    0.26200000  -18.19200000   34.58200000 L
 C-CT--0.123100  0    2.57600000  -17.81200000   36.93300000 L
 S-SH--0.311900  0    3.85800000  -18.82700000   37.73400000 L
 H-H-0.271900     0    4.48200000  -17.17600000   35.21900000 L
 H-H1-0.112400   0    2.41400000  -19.12600000   35.31400000 L
 H-H1-0.111200  0    2.81600000  -16.86800000   37.04300000 L
 H-H1-0.111200  0    1.71000000  -18.03300000   37.33800000 L
 H-HS-0.193300   0    3.71100000  -18.82000000   38.72100000 L
 N-N--0.347900    0    1.22200000  -16.16000000   34.62800000 L
 C-CT--0.240000  0    0.08000000  -15.45200000   34.06900000 L
 C-C-0.734100     0   -0.30000000  -15.93000000   32.67500000 L
 O-O--0.589400    0   -1.47800000  -16.11800000   32.38100000 L
 C-CT--0.009400  0    0.30000000  -13.91800000   34.04900000 L
 C-CT-0.018700   0    0.30200000  -13.30200000   35.45800000 L
 C-CT--0.047900  0    0.51900000  -11.77900000   35.46100000 L
 C-CT--0.014300  0   -0.78400000  -10.99100000   35.30300000 L
 N-N3--0.385400  0   -0.50500000   -9.53800000   35.32200000 L
 H-H-0.274700     0    2.12200000  -15.68800000   34.88600000 L
 H-H1-0.142600   0   -0.71900000  -15.58400000   34.68500000 L
 H-HC-0.036200  0    1.17700000  -13.73900000   33.63000000 L
 H-HC-0.036200  0   -0.43700000  -13.50900000   33.53100000 L
 H-HC-0.010300  0   -0.58000000  -13.50000000   35.89800000 L
 H-HC-0.010300  0    1.03400000  -13.73000000   35.99700000 L
 H-HC-0.062100  0    0.94200000  -11.52100000   36.32700000 L
 H-HC-0.062100  0    1.12500000  -11.54300000   34.70500000 L
 H-HP-0.113500  0   -1.20400000  -11.24100000   34.43500000 L
 H-HP-0.113500  0   -1.39200000  -11.22600000   36.05700000 L
 H-H-0.340000   0   -0.23200000   -9.26000000   36.24400000 L
 H-H-0.340000   0    0.23500000   -9.33000000   34.68100000 L
 H-H-0.340000   0   -1.32800000   -9.03400000   35.05400000 L
 N-N--0.516300    0    0.69700000  -16.19700000   31.80500000 L
 C-CT-0.039700   0    0.50300000  -16.78500000   30.48700000 L
 C-C-0.536600     0   -0.15000000  -18.15800000   30.51200000 L
 O-O--0.581900    0   -0.89000000  -18.53200000   29.60400000 L
 C-CT-0.056000   0    1.84800000  -16.96200000   29.75100000 L
 C-CT-0.013600   0    2.47800000  -15.64400000   29.25300000 L
 C-C-0.805400    0    3.70400000  -15.92200000   28.38500000 L
 O-O2--0.818800  0    3.50700000  -16.61400000   27.35200000 L
 O-O2--0.818800  0    4.82400000  -15.48800000   28.75300000 L
 H-H-0.293600     0    1.64900000  -15.93400000   32.17800000 L
 H-H1-0.110500   0   -0.06300000  -16.15500000   29.91700000 L
 H-HC--0.017300  0    2.48200000  -17.36800000   30.38100000 L
 H-HC--0.017300  0    1.68700000  -17.52400000   28.96300000 L
 H-HC--0.042500  0    1.82100000  -15.18700000   28.70300000 L
 H-HC--0.042500  0    2.77200000  -15.13800000   30.02900000 L
 N-N--0.415700    0    0.13400000  -18.95900000   31.55300000 L
 C-CT--0.051800  0   -0.40900000  -20.29500000   31.68900000 L
 C-C-0.597300     0   -1.65900000  -20.33400000   32.55600000 L
 O-O--0.567900    0   -2.22900000  -21.40200000   32.77500000 L
 C-CT--0.110200  0    0.65300000  -21.24000000   32.30200000 L
 C-CT-0.353100   0    1.84300000  -21.55500000   31.37500000 L
 C-CT--0.412100  0    2.91700000  -22.32000000   32.15600000 L
 C-CT--0.412100  0    1.42600000  -22.35800000   30.13200000 L
 H-H-0.271900     0    0.78200000  -18.52500000   32.25100000 L
 H-H1-0.092200   0   -0.65300000  -20.64200000   30.76700000 L
 H-HC-0.045700  0    1.01400000  -20.80200000   33.11000000 L
 H-HC-0.045700  0    0.20800000  -22.09300000   32.51600000 L
 H-HC--0.036100  0    2.22500000  -20.70100000   31.03900000 L
 H-HC-0.100000  0    2.52800000  -23.17300000   32.50100000 L
 H-HC-0.100000  0    3.68500000  -22.52100000   31.55000000 L
 H-HC-0.100000  0    3.23000000  -21.75900000   32.92100000 L
 H-HC-0.100000  0    0.75800000  -21.83000000   29.61100000 L
 H-HC-0.100000  0    2.23200000  -22.53300000   29.57000000 L
 H-HC-0.100000  0    1.02200000  -23.22300000   30.42200000 L
 N-N--0.415700    0   -2.14100000  -19.17400000   33.05200000 L
 C-CT--0.025200  0   -3.35900000  -19.09300000   33.85400000 L
 C-C-0.597300     0   -3.18700000  -19.49800000   35.29700000 L
 O-O--0.567900    0   -4.15900000  -19.75000000   36.00400000 L
 H-H-0.271900     0   -1.55900000  -18.34000000   32.80700000 L
 H-H1-0.069800  0   -3.71800000  -18.13600000   33.81100000 L
 H-H1-0.069800  0   -4.07800000  -19.67900000   33.42100000 L
 N-N--0.415700    0   -1.93100000  -19.57500000   35.76600000 L
 C-CT--0.059700  0   -1.57100000  -20.02300000   37.10000000 L
 C-C-0.597300     0   -1.60900000  -18.84100000   38.05700000 L
 O-O--0.567900    0   -0.94200000  -17.82900000   37.84900000 L
 C-CT-0.130300   0   -0.16700000  -20.63300000   37.13800000 L
 C-CT--0.043000  0    0.01000000  -21.76700000   36.10100000 L
 C-CT--0.320400  0    0.17000000  -21.13300000   38.56200000 L
 C-CT--0.066000  0    1.47600000  -22.18000000   35.92300000 L
 H-H-0.271900     0   -1.20800000  -19.27100000   35.05400000 L
 H-H1-0.086900   0   -2.29200000  -20.65100000   37.39300000 L
 H-HC-0.018700   0    0.49400000  -19.91600000   36.91300000 L
 H-HC-0.023600  0   -0.50900000  -22.55300000   36.40400000 L