%chk=complex.chk
%mem=8000Mb
%nproc=24
# opt oniom(b3lyp/genecp:amber=hardfirst)

Title Card Required

-5 1 0 1 0 1
 N-N3-0.159200     0   41.10200000   19.81000000   58.39800000 L
 C-CT-0.022100    0   39.89700000   19.49300000   59.22900000 L
 C-C-0.612300      0   38.66500000   19.80900000   58.42600000 L
 O-O--0.571300     0   38.77100000   20.57300000   57.47100000 L
 C-CT-0.086500    0   39.90500000   20.33600000   60.53800000 L
 C-CT-0.033400    0   39.74500000   21.86600000   60.35000000 L
 S-S--0.277400    0   39.66600000   22.79700000   61.90700000 L
 C-CT--0.034100   0   37.96200000   22.32800000   62.33900000 L
 H-H-0.198400     0   40.80300000   20.15000000   57.51100000 L
 H-HP-0.111600    0   39.92300000   18.51600000   59.41900000 L
 H-HC-0.012500   0   39.15400000   20.01500000   61.13200000 L
 H-HC-0.012500   0   40.77600000   20.17100000   61.02100000 L
 H-H1-0.029200   0   40.52600000   22.19300000   59.76700000 L
 H-H1-0.029200   0   38.90200000   22.02600000   59.78500000 L
 H-H1-0.059700   0   37.90600000   22.19200000   63.32400000 L
 H-H1-0.059700   0   37.34600000   23.06000000   62.05900000 L
 H-H1-0.059700   0   37.73000000   21.48400000   61.86300000 L
 H-H-0.198400     0   41.64300000   20.50400000   58.86400000 L
 H-H-0.198400     0   41.64100000   18.98100000   58.28000000 L
 N-N--0.516300     0   37.50700000   19.23700000   58.78400000 L
 C-CT-0.039700    0   36.24600000   19.52000000   58.13500000 L
 C-C-0.536600      0   35.74200000   20.94100000   58.28500000 L
 O-O--0.581900     0   36.07100000   21.64500000   59.24100000 L
 C-CT-0.056000    0   35.16800000   18.49100000   58.56800000 L
 C-CT-0.013600    0   34.57700000   17.72000000   57.36800000 L
 C-C-0.805400     0   35.71400000   17.11100000   56.55300000 L
 O-O2--0.818800  0   36.52000000   16.34700000   57.14500000 L
 O-O2--0.818800  0   35.83300000   17.49400000   55.36300000 L
 H-H-0.293600      0   37.60500000   18.56200000   59.58400000 L
 H-H1-0.110500    0   36.32200000   19.29600000   57.13400000 L
 H-HC--0.017300  0   35.59800000   17.84100000   59.15100000 L
 H-HC--0.017300  0   34.44200000   18.98300000   58.98700000 L
 H-HC--0.042500  0   34.03800000   16.99800000   57.71400000 L
 H-HC--0.042500  0   34.11300000   18.35200000   56.80500000 L
 N-N--0.415700     0   34.93600000   21.39400000   57.30900000 L
 C-CT--0.051800   0   34.31900000   22.70000000   57.32800000 L
 C-C-0.597300      0   32.81400000   22.53700000   57.43100000 L
 O-O--0.567900     0   32.20100000   21.76000000   56.70100000 L
 C-CT--0.110200   0   34.60800000   23.50900000   56.03900000 L
 C-CT-0.353100    0   36.09600000   23.74100000   55.70200000 L
 C-CT--0.412100  0   36.20200000   24.65700000   54.47700000 L
 C-CT--0.412100  0   36.91300000   24.33800000   56.85800000 L
 H-H-0.271900      0   34.79900000   20.70200000   56.52900000 L
 H-H1-0.092200    0   34.63900000   23.20100000   58.13400000 L
 H-HC-0.045700   0   34.20600000   23.01500000   55.27700000 L
 H-HC-0.045700   0   34.18500000   24.40000000   56.14200000 L
 H-HC--0.036100   0   36.51900000   22.86800000   55.49800000 L
 H-HC-0.100000  0   35.76300000   25.53000000   54.68100000 L
 H-HC-0.100000  0   37.16500000   24.80600000   54.26000000 L
 H-HC-0.100000  0   35.74600000   24.22400000   53.70200000 L
 H-HC-0.100000  0   36.87800000   23.71700000   57.63900000 L
 H-HC-0.100000  0   37.85900000   24.45700000   56.56300000 L
 H-HC-0.100000  0   36.52400000   25.22200000   57.11200000 L
 N-N--0.347900     0   32.17300000   23.28300000   58.34300000 L
 C-CT--0.240000   0   30.74100000   23.24600000   58.53200000 L
 C-C-0.734100      0   30.32000000   24.64000000   58.96400000 L
 O-O--0.589400     0   31.16400000   25.47700000   59.27500000 L
 C-CT--0.009400   0   30.32200000   22.17300000   59.56800000 L
 C-CT-0.018700    0   31.07300000   22.31200000   60.89500000 L
 C-CT--0.047900   0   30.54300000   21.40200000   62.01400000 L
 C-CT--0.014300   0   31.26600000   21.59400000   63.36000000 L
 N-N3--0.385400   0   31.28300000   23.00900000   63.73500000 L
 H-H-0.274700      0   32.81400000   23.89600000   58.90600000 L
 H-H1-0.142600    0   30.29800000   23.03000000   57.67000000 L
 H-HC-0.036200   0   29.35400000   22.27800000   59.74200000 L
 H-HC-0.036200   0   30.52300000   21.28300000   59.18400000 L
 H-HC-0.010300   0   32.04600000   22.09500000   60.74200000 L
 H-HC-0.010300   0   31.01100000   23.26900000   61.20600000 L
 H-HC-0.062100   0   29.57200000   21.59700000   62.15100000 L
 H-HC-0.062100   0   30.65600000   20.44900000   61.73200000 L
 H-HP-0.113500   0   30.78200000   21.05900000   64.05100000 L
 H-HP-0.113500   0   32.19900000   21.25100000   63.26300000 L
 H-H-0.340000    0   31.31700000   23.09900000   64.73400000 L
 H-H-0.340000    0   32.08800000   23.46000000   63.34000000 L
 H-H-0.340000    0   30.45600000   23.46500000   63.39500000 L
 N-N--0.516300     0   29.00800000   24.95200000   58.92400000 L
 C-CT-0.038100    0   28.49800000   26.31100000   58.96100000 L
 C-C-0.536600      0   28.83800000   27.12000000   60.22000000 L
 O-O--0.581900     0   29.27800000   28.26800000   60.14200000 L
 C-CT--0.030300   0   26.96400000   26.25600000   58.74600000 L
 C-C-0.799400     0   26.48600000   27.58600000   58.19900000 L
 O-O2--0.801400  0   26.66300000   27.78300000   56.95800000 L
 O-O2--0.801400  0   26.01100000   28.43800000   58.96700000 L
 H-H-0.293600      0   28.38500000   24.10600000   58.86300000 L
 H-H1-0.088000    0   28.91700000   26.81400000   58.17200000 L
 H-HC--0.012200  0   26.78100000   25.55200000   58.09300000 L
 H-HC--0.012200  0   26.54800000   26.09400000   59.61500000 L
 N-N--0.516300     0   28.70500000   26.50100000   61.40600000 L
 C-CT-0.038100    0   28.76500000   27.12200000   62.71400000 L
 C-C-0.536600      0   30.17300000   27.57600000   63.10000000 L
 O-O--0.581900     0   30.37300000   28.48600000   63.91600000 L
 C-CT--0.030300   0   28.13600000   26.13200000   63.73400000 L
 C-C-0.799400     0   28.82900000   24.79600000   63.76700000 L
 O-O2--0.801400  0   28.96000000   24.11500000   62.71600000 L
 O-O2--0.801400  0   29.28100000   24.41200000   64.87000000 L
 H-H-0.293600      0   28.54100000   25.44700000   61.28900000 L
 H-H1-0.088000    0   28.18900000   27.95800000   62.68100000 L
 H-HC--0.012200  0   28.19500000   26.55800000   64.63000000 L
 H-HC--0.012200  0   27.18600000   26.00600000   63.47300000 L
 N-N--0.516300     0   31.18400000   26.99800000   62.42700000 L
 C-CT-0.038100    0   32.57300000   27.37000000   62.54800000 L
 C-C-0.536600      0   32.89400000   28.68300000   61.84200000 L
 O-O--0.581900     0   33.94300000   29.28800000   62.08200000 L
 C-CT--0.030300   0   33.46800000   26.26700000   61.94000000 L
 C-C-0.799400     0   33.35300000   25.00600000   62.75400000 L
 O-O2--0.801400  0   33.27200000   23.92200000   62.13100000 L
 O-O2--0.801400  0   33.30800000   25.06400000   64.00500000 L
 H-H-0.293600      0   30.85200000   26.22300000   61.78300000 L
 H-H1-0.088000    0   32.76600000   27.51400000   63.53400000 L
 H-HC--0.012200  0   33.15100000   26.09800000   61.02600000 L
 H-HC--0.012200  0   34.39400000   26.58900000   61.96300000 L
 N-N--0.415700     0   32.01000000   29.18300000   60.95900000 L
 C-CT--0.002400   0   32.23900000   30.41300000   60.22400000 L
 C-C-0.597300      0   31.69100000   31.65200000   60.91000000 L
 O-O--0.567900     0   30.81200000   31.60800000   61.77000000 L
 C-CT--0.034300   0   31.67700000   30.34100000   58.77900000 L
 C-CA-0.011800    0   32.50300000   29.35200000   58.01400000 L
 C-CA--0.125600  0   31.99600000   28.08300000   57.69800000 L
 C-CA--0.125600  0   33.84400000   29.63900000   57.72100000 L
 C-CA--0.170400  0   32.82300000   27.09400000   57.15100000 L
 C-CA--0.170400  0   34.66500000   28.65200000   57.17200000 L
 C-CA--0.107200   0   34.16200000   27.38100000   56.88100000 L
 H-H-0.271900      0   31.14700000   28.60100000   60.85500000 L
 H-H1-0.097800    0   33.24800000   30.53700000   60.16100000 L
 H-HC-0.029500   0   30.77300000   30.01500000   58.83600000 L
 H-HC-0.029500   0   31.78600000   31.21200000   58.38300000 L
 H-HA-0.133000   0   31.03800000   27.88000000   57.86200000 L
 H-HA-0.133000   0   34.20600000   30.54300000   57.90400000 L
 H-HA-0.143000   0   32.44600000   26.18500000   56.95800000 L
 H-HA-0.143000   0   35.64100000   28.86500000   56.98500000 L
 H-HA-0.129700    0   34.75000000   26.68500000   56.48500000 L
 N-N--0.516300     0   32.24200000   32.81700000   60.52500000 L
 C-CT-0.039700    0   31.77500000   34.11100000   60.97100000 L
 C-C-0.536600      0   31.94200000   35.09000000   59.83300000 L
 O-O--0.581900     0   32.87400000   34.97500000   59.03800000 L
 C-CT-0.056000    0   32.55500000   34.57500000   62.21100000 L
 C-CT-0.013600    0   31.78200000   35.56000000   63.11800000 L
 C-C-0.805400     0   31.86800000   35.05200000   64.54900000 L
 O-O2--0.818800  0   32.83600000   35.41400000   65.25500000 L
 O-O2--0.818800  0   31.03800000   34.16300000   64.89200000 L
 H-H-0.293600      0   33.05100000   32.69300000   59.86300000 L
 H-H1-0.110500    0   30.81200000   34.05600000   61.23100000 L
 H-HC--0.017300  0   32.75900000   33.78300000   62.75400000 L
 H-HC--0.017300  0   33.36400000   35.03900000   61.90500000 L
 H-HC--0.042500  0   32.22600000   36.41200000   63.07500000 L
 H-HC--0.042500  0   30.85900000   35.54800000   62.85100000 L
 N-N--0.347900    0   31.00700000   36.04500000   59.67700000 L
 C-CT--0.240000  0   30.84700000   36.79400000   58.44400000 L
 C-C-0.734100     0   31.43700000   38.18900000   58.56300000 L
 O-O--0.589400    0   30.93100000   39.02300000   59.30800000 L
 C-CT--0.009400  0   29.33900000   36.86200000   58.08100000 L
 C-CT-0.018700   0   29.06100000   37.20500000   56.60900000 L
 C-CT--0.047900  0   27.60200000   36.92800000   56.19700000 L
 C-CT--0.014300  0   26.61200000   38.03600000   56.57000000 L
 N-N3--0.385400  0   25.26000000   37.68300000   56.07400000 L
 H-H-0.274700     0   30.41200000   36.19300000   60.52400000 L
 H-H1-0.142600   0   31.32200000   36.30500000   57.69900000 L
 H-HC-0.036200  0   28.93700000   35.97300000   58.27600000 L
 H-HC-0.036200  0   28.91900000   37.56200000   58.65000000 L
 H-HC-0.010300  0   29.25400000   38.17700000   56.46100000 L
 H-HC-0.010300  0   29.66500000   36.65700000   56.02800000 L
 H-HC-0.062100  0   27.57500000   36.80100000   55.20100000 L
 H-HC-0.062100  0   27.30500000   36.07600000   56.63900000 L
 H-HP-0.113500  0   26.59300000   38.12600000   57.56000000 L
 H-HP-0.113500  0   26.91100000   38.88600000   56.15000000 L
 H-H-0.340000   0   25.04700000   38.23100000   55.26500000 L
 H-H-0.340000   0   25.23500000   36.71200000   55.83400000 L
 H-H-0.340000   0   24.58300000   37.86700000   56.78800000 L
 N-N--0.415700    0   32.54100000   38.47100000   57.83700000 L
 C-CT--0.059700  0   33.26600000   39.73000000   57.95400000 L
 C-C-0.597300     0   32.68500000   40.79300000   57.03800000 L
 O-O--0.567900    0   32.37600000   41.90600000   57.45600000 L
 C-CT-0.130300   0   34.75400000   39.54100000   57.62500000 L
 C-CT--0.043000  0   35.39700000   38.48700000   58.56200000 L
 C-CT--0.320400  0   35.49400000   40.89800000   57.72200000 L
 C-CT--0.066000  0   36.79100000   38.03800000   58.10400000 L
 H-H-0.271900     0   32.82200000   37.70300000   57.18800000 L
 H-H1-0.086900   0   33.12300000   40.05100000   58.89800000 L
 H-HC-0.018700   0   34.82800000   39.19800000   56.69500000 L
 H-HC-0.023600  0   35.46900000   38.87900000   59.47000000 L
 H-HC-0.023600  0   34.80100000   37.69300000   58.58700000 L
 H-HC-0.088200  0   36.44300000   40.76500000   57.45700000 L
 H-HC-0.088200  0   35.05500000   41.54700000   57.10900000 L
 H-HC-0.088200  0   35.44300000   41.22400000   58.66000000 L
 H-HC-0.018600  0   37.39100000   38.83200000   58.07900000 L
 H-HC-0.018600  0   37.13900000   37.36500000   58.75000000 L
 H-HC-0.018600  0   36.71600000   37.63600000   57.19700000 L
 N-N--0.415700    0   32.51600000   40.47600000   55.74200000 L
 C-CT--0.024900  0   31.97500000   41.42300000   54.78200000 L
 C-C-0.597300     0   31.53300000   40.66600000   53.55500000 L
 O-O--0.567900    0   31.83100000   39.48300000   53.41000000 L
 C-CT-0.211700   0   32.95200000   42.57000000   54.36400000 L
 O-OH--0.654600  0   34.15300000   42.11200000   53.72600000 L
 H-H-0.271900     0   32.80500000   39.50700000   55.50000000 L
 H-H1-0.084300   0   31.17100000   41.85600000   55.19000000 L
 H-H1-0.035200  0   32.46500000   43.18000000   53.73500000 L
 H-H1-0.035200  0   33.20000000   43.08200000   55.18900000 L
 H-HO-0.427500   0   34.04800000   41.15000000   53.48900000 L
 N-N--0.516300    0   30.79900000   41.30800000   52.62600000 L
 C-CT-0.039700   0   30.52600000   40.72200000   51.32600000 L
 C-C-0.536600     0   31.62300000   41.10400000   50.34000000 L
 O-O--0.581900    0   32.21700000   42.17900000   50.44100000 L
 C-CT-0.056000   0   29.12400000   41.11400000   50.81100000 L
 C-CT-0.013600   0   28.57100000   40.15100000   49.73100000 L
 C-C-0.805400    0   27.13100000   40.48200000   49.35000000 L
 O-O2--0.818800  0   26.89600000   40.74500000   48.14300000 L
 O-O2--0.818800  0   26.26900000   40.45500000   50.26600000 L
 H-H-0.293600     0   30.45600000   42.24100000   52.92600000 L
 H-H1-0.110500   0   30.48100000   39.72200000   51.40400000 L
 H-HC--0.017300  0   28.50700000   41.08400000   51.56900000 L
 H-HC--0.017300  0   29.19000000   41.99900000   50.40200000 L
 H-HC--0.042500  0   29.12300000   40.25100000   48.93300000 L
 H-HC--0.042500  0   28.58300000   39.24800000   50.10200000 L
 N-N--0.415700    0   31.95900000   40.21100000   49.38800000 L
 C-CT--0.051800  0   32.94500000   40.47700000   48.35200000 L
 C-C-0.597300     0   32.27600000   40.70400000   47.00400000 L
 O-O--0.567900    0   32.91200000   41.16000000   46.05400000 L
 C-CT--0.110200  0   33.91600000   39.27600000   48.22100000 L
 C-CT-0.353100   0   34.83700000   39.07700000   49.44300000 L
 C-CT--0.412100  0   35.54000000   37.71400000   49.37600000 L
 C-CT--0.412100  0   35.88300000   40.19700000   49.56600000 L
 H-H-0.271900     0   31.43900000   39.30300000   49.46700000 L
 H-H1-0.092200   0   33.45400000   41.31100000   48.59800000 L
 H-HC-0.045700  0   33.37300000   38.46100000   48.12300000 L
 H-HC-0.045700  0   34.49000000   39.43800000   47.44000000 L
 H-HC--0.036100  0   34.28600000   39.12300000   50.27300000 L
 H-HC-0.100000  0   36.08900000   37.66900000   48.54400000 L
 H-HC-0.100000  0   36.12900000   37.60900000   50.17500000 L
 H-HC-0.100000  0   34.85200000   36.99100000   49.36600000 L
 H-HC-0.100000  0   35.41400000   41.07300000   49.66500000 L
 H-HC-0.100000  0   36.45300000   40.02600000   50.36700000 L
 H-HC-0.100000  0   36.44900000   40.20700000   48.74400000 L
 N-N--0.415700    0   30.95900000   40.43800000   46.90800000 L
 C-CT--0.025200  0   30.16600000   40.62600000   45.70300000 L
 C-C-0.597300     0   29.29700000   39.43700000   45.40600000 L
 O-O--0.567900    0   29.37000000   38.39500000   46.05700000 L
 H-H-0.271900     0   30.54700000   40.07200000   47.81000000 L
 H-H1-0.069800  0   29.58800000   41.45200000   45.81200000 L
 H-H1-0.069800  0   30.78800000   40.79800000   44.92000000 L
 N-N--0.415700    0   28.43600000   39.56800000   44.38300000 L
 C-CT-0.033700   0   27.42700000   38.58500000   44.07300000 L
 C-C-0.597300     0   27.32300000   38.36900000   42.57300000 L
 O-O--0.567900    0   27.73700000   39.20100000   41.76800000 L
 C-CT--0.182500  0   26.07100000   39.06200000   44.62400000 L
 H-H-0.271900     0   28.57100000   40.45300000   43.83600000 L
 H-H1-0.082300   0   27.67600000   37.70700000   44.50500000 L
 H-HC-0.060300  0   25.37600000   38.95100000   43.91800000 L
 H-HC-0.060300  0   25.83400000   38.51500000   45.42300000 L
 H-HC-0.060300  0   26.14300000   40.02300000   44.88000000 L
 N-N--0.415700    0   26.77300000   37.21200000   42.15800000 L
 C-CT--0.025200  0   26.56300000   36.88500000   40.75600000 L
 C-C-0.597300     0   25.23100000   36.22300000   40.54700000 L
 O-O--0.567900    0   24.30300000   36.35700000   41.33600000 L
 H-H-0.271900     0   26.51100000   36.56900000   42.94300000 L
 H-H1-0.069800  0   26.61400000   37.73100000   40.20600000 L
 H-H1-0.069800  0   27.30200000   36.27100000   40.44400000 L
 N-N--0.415700    0   25.08000000   35.46000000   39.44700000 L
 C-CT-0.014300   0   23.84600000   34.73500000   39.17700000 L
 C-C-0.597300     0   23.67400000   33.55800000   40.13300000 L
 O-O--0.567900    0   24.38800000   32.56400000   40.04800000 L
 C-CT--0.204100  0   23.79600000   34.20000000   37.71500000 L
 C-C-0.713000    0   23.47400000   35.26500000   36.66700000 L
 H-H-0.271900     0   25.91100000   35.44000000   38.82500000 L
 H-H1-0.104800   0   23.08200000   35.36800000   39.35200000 L
 H-HC-0.079700  0   24.68900000   33.80400000   37.50400000 L
 H-HC-0.079700  0   23.09500000   33.48900000   37.67500000 L
 O-O--0.593100  0   22.88800000   34.96500000   35.62900000 L
 N-N--0.919100  0   23.83500000   36.54200000   36.90400000 L
 H-H-0.419600  0   24.31200000   36.72500000   37.77500000 L
 H-H-0.419600  0   23.64100000   37.24900000   36.25800000 L
 N-N--0.415700    0   22.71800000   33.66300000   41.08300000 L
 C-CT--0.025200  0   22.35900000   32.56800000   41.98400000 L
 C-C-0.597300     0   23.29800000   32.35000000   43.13900000 L
 O-O--0.567900    0   23.14500000   31.39200000   43.89000000 L
 H-H-0.271900     0   22.25900000   34.60200000   41.11200000 L
 H-H1-0.069800  0   21.41100000   32.73800000   42.34200000 L
 H-H1-0.069800  0   22.28800000   31.70300000   41.43400000 L
 N-N--0.415700    0   24.30400000   33.22700000   43.31600000 L
 C-CT--0.025200  0   25.28000000   33.04200000   44.37500000 L
 C-C-0.597300     0   25.89800000   34.31800000   44.85500000 L
 O-O--0.567900    0   26.14000000   35.24600000   44.08400000 L
 H-H-0.271900     0   24.31000000   34.01400000   42.64800000 L
 H-H1-0.069800  0   24.83100000   32.56300000   45.15900000 L
 H-H1-0.069800  0   26.01200000   32.41100000   44.04300000 L
 N-N--0.415700    0   26.20900000   34.36200000   46.15700000 L
 C-CT--0.087500  0   26.83100000   35.48000000   46.84500000 L
 C-C-0.597300     0   28.16700000   35.00700000   47.37400000 L
 O-O--0.567900    0   28.35800000   33.82400000   47.66400000 L
 C-CT-0.298500   0   25.99500000   36.03300000   48.00000000 L
 C-CT--0.319200  0   24.79400000   36.80700000   47.43100000 L
 C-CT--0.319200  0   25.50300000   34.90400000   48.92600000 L
 H-H-0.271900     0   25.94700000   33.46100000   46.66700000 L
 H-H1-0.096900   0   26.99600000   36.20400000   46.18100000 L
 H-HC--0.029700  0   26.54500000   36.69100000   48.49400000 L
 H-HC-0.079100  0   25.12200000   37.64000000   46.99100000 L
 H-HC-0.079100  0   24.32300000   36.23400000   46.76400000 L
 H-HC-0.079100  0   24.17300000   37.03900000   48.17600000 L
 H-HC-0.079100  0   25.41500000   35.26400000   49.85100000 L
 H-HC-0.079100  0   24.61900000   34.58200000   48.59700000 L
 H-HC-0.079100  0   26.16800000   34.16100000   48.90700000 L
 N-N--0.415700    0   29.16000000   35.91100000   47.47000000 L
 C-CT--0.087500  0   30.47000000   35.57100000   47.99200000 L
 C-C-0.597300     0   30.76900000   36.45400000   49.18300000 L
 O-O--0.567900    0   30.82900000   37.67900000   49.09300000 L
 C-CT-0.298500   0   31.59100000   35.70300000   46.96300000 L
 C-CT--0.319200  0   32.91200000   35.14800000   47.54000000 L
 C-CT--0.319200  0   31.21100000   34.91600000   45.69400000 L
 H-H-0.271900     0   28.89800000   36.86300000   47.13700000 L
 H-H1-0.096900   0   30.44700000   34.62000000   48.30500000 L
 H-HC--0.029700  0   31.74700000   36.66800000   46.79100000 L
 H-HC-0.079100  0   33.37700000   35.87500000   48.03800000 L
 H-HC-0.079100  0   32.70300000   34.39200000   48.15400000 L
 H-HC-0.079100  0   33.48400000   34.83000000   46.78900000 L
 H-HC-0.079100  0   30.35700000   34.43100000   45.86200000 L
 H-HC-0.079100  0   31.09900000   35.55800000   44.94000000 L
 H-HC-0.079100  0   31.94000000   34.26800000   45.48800000 L
 N-N--0.415700    0   30.98600000   35.83500000   50.35300000 L
 C-CT--0.002400  0   31.30300000   36.54000000   51.57600000 L
 C-C-0.597300     0   32.76300000   36.35500000   51.92400000 L
 O-O--0.567900    0   33.35400000   35.29800000   51.71000000 L
 C-CT--0.034300  0   30.45600000   36.03900000   52.77800000 L
 C-CA-0.011800   0   29.02300000   36.47100000   52.63400000 L
 C-CA--0.125600  0   28.01400000   35.55000000   52.30800000 L
 C-CA--0.125600  0   28.67400000   37.82000000   52.81700000 L
 C-CA--0.170400  0   26.68900000   35.97600000   52.13900000 L
 C-CA--0.170400  0   27.35400000   38.25100000   52.63300000 L
 C-CA--0.107200  0   26.36300000   37.32900000   52.28200000 L
 H-H-0.271900     0   30.90300000   34.79000000   50.29500000 L
 H-H1-0.097800   0   31.16700000   37.52000000   51.39700000 L
 H-HC-0.029500  0   30.49000000   35.06600000   52.77300000 L
 H-HC-0.029500  0   30.82400000   36.44500000   53.58300000 L
 H-HA-0.133000  0   28.23600000   34.59200000   52.19700000 L
 H-HA-0.133000  0   29.37500000   38.47600000   53.08200000 L
 H-HA-0.143000  0   25.97900000   35.30300000   51.91400000 L
 H-HA-0.143000  0   27.12600000   39.22600000   52.75400000 L
 H-HA-0.129700   0   25.42600000   37.63100000   52.13400000 L
 N-N--0.347900    0   33.38400000   37.38900000   52.52000000 L
 C-CT--0.240000  0   34.64000000   37.23400000   53.21400000 L
 C-C-0.734100     0   34.33100000   36.77100000   54.62100000 L
 O-O--0.589400    0   33.54800000   37.38800000   55.34500000 L
 C-CT--0.009400  0   35.49200000   38.52500000   53.25500000 L
 C-CT-0.018700   0   36.90300000   38.25000000   53.80100000 L
 C-CT--0.047900  0   37.91000000   39.38800000   53.57800000 L
 C-CT--0.014300  0   37.69600000   40.59400000   54.49200000 L
 N-N3--0.385400  0   38.88300000   41.47600000   54.42400000 L
 H-H-0.274700     0   32.87500000   38.29400000   52.43000000 L
 H-H1-0.142600   0   35.18700000   36.53700000   52.75700000 L
 H-HC-0.036200  0   35.57600000   38.86800000   52.33700000 L
 H-HC-0.036200  0   35.04700000   39.16800000   53.85200000 L
 H-HC-0.010300  0   36.83500000   38.07300000   54.79400000 L
 H-HC-0.010300  0   37.26200000   37.41400000   53.36200000 L
 H-HC-0.062100  0   38.83300000   39.03000000   53.73700000 L
 H-HC-0.062100  0   37.83700000   39.69500000   52.62600000 L
 H-HP-0.113500  0   36.89200000   41.08900000   54.18400000 L
 H-HP-0.113500  0   37.57100000   40.27100000   55.42300000 L
 H-H-0.340000   0   39.22400000   41.50800000   53.48400000 L
 H-H-0.340000   0   38.63200000   42.40000000   54.71700000 L
 H-H-0.340000   0   39.60000000   41.12100000   55.02500000 L
 N-N--0.415700    0   34.91100000   35.63400000   55.02600000 L
 C-CT--0.087500  0   34.55400000   34.98900000   56.27000000 L
 C-C-0.597300     0   35.79500000   34.65000000   57.05100000 L
 O-O--0.567900    0   36.89900000   34.56000000   56.51900000 L
 C-CT-0.298500   0   33.71100000   33.71900000   56.09600000 L
 C-CT--0.319200  0   32.38700000   34.07700000   55.39200000 L
 C-CT--0.319200  0   34.47300000   32.62300000   55.32200000 L
 H-H-0.271900     0   35.63200000   35.26700000   54.36800000 L
 H-H1-0.096900   0   34.00600000   35.63500000   56.81400000 L
 H-HC--0.029700  0   33.46900000   33.38300000   56.99400000 L
 H-HC-0.079100  0   32.58600000   34.63900000   54.59300000 L
 H-HC-0.079100  0   31.93100000   33.23600000   55.11100000 L
 H-HC-0.079100  0   31.80800000   34.58200000   56.02700000 L
 H-HC-0.079100  0   34.18400000   32.64600000   54.36900000 L
 H-HC-0.079100  0   35.45000000   32.80500000   55.39000000 L
 H-HC-0.079100  0   34.25800000   31.73800000   55.72600000 L
 N-N--0.415700    0   35.61200000   34.44600000   58.36300000 L
 C-CT--0.024900  0   36.62400000   33.91700000   59.25700000 L
 C-C-0.597300     0   36.26400000   32.48000000   59.55800000 L
 O-O--0.567900    0   35.11000000   32.18000000   59.86700000 L
 C-CT-0.211700   0   36.67400000   34.68900000   60.60300000 L
 O-OH--0.654600  0   37.73300000   34.22000000   61.44000000 L
 H-H-0.271900     0   34.64300000   34.71200000   58.69100000 L
 H-H1-0.084300   0   37.49900000   33.92500000   58.78000000 L
 H-H1-0.035200  0   36.81800000   35.65300000   60.40700000 L
 H-H1-0.035200  0   35.80700000   34.55700000   61.07200000 L
 H-HO-0.427500   0   38.40200000   33.73500000   60.88100000 L
 N-N--0.415700    0   37.23000000   31.54600000   59.46900000 L
 C-CT-0.018800   0   37.05100000   30.19300000   59.96500000 L
 C-C-0.597300     0   37.55600000   30.13400000   61.38900000 L
 O-O--0.567900    0   38.75600000   30.07700000   61.63500000 L
 C-CT--0.046200  0   37.81700000   29.13900000   59.13000000 L
 C-CC--0.026600  0   37.50200000   27.72300000   59.54000000 L
 H-H-0.271900     0   38.10500000   31.88600000   59.01600000 L
 H-H1-0.088100   0   36.07500000   29.97900000   59.96400000 L
 H-HC-0.040200  0   37.57200000   29.25100000   58.16700000 L
 H-HC-0.040200  0   38.79900000   29.29000000   59.24500000 L
 N-NA--0.381100  0   38.52500000   26.82400000   59.78200000 L
 C-CV-0.129200  0   36.29600000   27.11900000   59.72300000 L
 C-CR-0.205700  0   37.92200000   25.69400000   60.10400000 L
 N-NB--0.572700  0   36.57400000   25.81800000   60.08500000 L
 H-H-0.364900   0   39.48100000   26.99500000   59.72600000 L
 H-H4-0.114700  0   35.40500000   27.52800000   59.61700000 L
 H-H5-0.139200  0   38.39400000   24.83000000   60.33800000 L
 N-N--0.347900    0   36.65100000   30.14300000   62.38300000 L
 C-CT--0.240000  0   37.01100000   30.29200000   63.78300000 L
 C-C-0.734100     0   37.94100000   29.21900000   64.36500000 L
 O-O--0.589400    0   38.83300000   29.60800000   65.11800000 L
 C-CT--0.009400  0   35.74600000   30.49000000   64.65900000 L
 C-CT-0.018700   0   34.99600000   31.79100000   64.32800000 L
 C-CT--0.047900  0   33.68000000   31.95400000   65.11100000 L
 C-CT--0.014300  0   32.54800000   31.07500000   64.55800000 L
 N-N3--0.385400  0   31.20900000   31.54400000   64.97400000 L
 H-H-0.274700     0   35.66300000   30.03200000   62.05200000 L
 H-H1-0.142600   0   37.46600000   31.20700000   63.90900000 L
 H-HC-0.036200  0   35.13800000   29.72900000   64.49500000 L
 H-HC-0.036200  0   36.03100000   30.52600000   65.60500000 L
 H-HC-0.010300  0   35.59200000   32.57100000   64.54100000 L
 H-HC-0.010300  0   34.78600000   31.80300000   63.34600000 L
 H-HC-0.062100  0   33.84200000   31.69800000   66.06000000 L
 H-HC-0.062100  0   33.39400000   32.90700000   65.05700000 L
 H-HP-0.113500  0   32.60900000   31.07700000   63.55300000 L
 H-HP-0.113500  0   32.69200000   30.13300000   64.88300000 L
 H-H-0.340000   0   30.99700000   31.19100000   65.88700000 L
 H-H-0.340000   0   31.19500000   32.54500000   64.99500000 L
 H-H-0.340000   0   30.52100000   31.21700000   64.32400000 L
 N-N--0.254800    0   37.86300000   27.91200000   64.08400000 L
 C-CT--0.026600  0   38.82900000   26.93800000   64.58900000 L
 C-C-0.589600     0   40.25400000   27.10700000   64.08800000 L
 O-O--0.574800    0   41.17000000   26.64300000   64.76000000 L
 C-CT--0.007000  0   38.25100000   25.57800000   64.16300000 L
 C-CT-0.018900   0   36.74900000   25.83100000   64.05500000 L
 C-CT-0.019200   0   36.69700000   27.24900000   63.49900000 L
 H-H1-0.064100   0   38.81200000   26.92500000   65.61800000 L
 H-HC-0.025300  0   38.61700000   25.29500000   63.28100000 L
 H-HC-0.025300  0   38.43500000   24.88000000   64.84900000 L
 H-HC-0.021300  0   36.34000000   25.18900000   63.42800000 L
 H-HC-0.021300  0   36.33100000   25.78400000   64.94800000 L
 H-H1-0.039100  0   36.75300000   27.24000000   62.49800000 L
 H-H1-0.039100  0   35.84700000   27.70800000   63.77300000 L
 N-N--0.415700    0   40.47800000   27.69600000   62.89500000 L
 C-CT--0.024900  0   41.82600000   27.84500000   62.35300000 L
 C-C-0.597300     0   42.32500000   29.27700000   62.37000000 L
 O-O--0.567900    0   43.52700000   29.52600000   62.33300000 L
 C-CT-0.211700   0   41.90500000   27.33600000   60.88500000 L
 O-OH--0.654600  0   41.06100000   28.07300000   59.99400000 L
 H-H-0.271900     0   39.62200000   28.02400000   62.41300000 L
 H-H1-0.084300   0   42.45400000   27.28800000   62.92700000 L
 H-H1-0.035200  0   42.85100000   27.41700000   60.57600000 L
 H-H1-0.035200  0   41.62900000   26.37600000   60.87200000 L
 H-HO-0.427500   0   41.22600000   27.76600000   59.06000000 L
 N-N--0.415700    0   41.41300000   30.26700000   62.42600000 L
 C-CT--0.025200  0   41.73300000   31.68400000   62.31100000 L
 C-C-0.597300     0   41.92000000   32.16700000   60.89300000 L
 O-O--0.567900    0   42.20000000   33.34200000   60.67000000 L
 H-H-0.271900     0   40.42900000   29.91400000   62.56300000 L
 H-H1-0.069800  0   40.99100000   32.22800000   62.75800000 L
 H-H1-0.069800  0   42.58200000   31.87600000   62.84800000 L
 N-N--0.415700    0   41.77900000   31.29000000   59.87900000 L
 C-CT--0.051800  0   41.89800000   31.68600000   58.48700000 L
 C-C-0.597300     0   40.81400000   32.62800000   57.98800000 L
 O-O--0.567900    0   39.62300000   32.44900000   58.24300000 L
 C-CT--0.110200  0   41.94100000   30.46700000   57.53300000 L
 C-CT-0.353100   0   43.30100000   29.74700000   57.49100000 L
 C-CT--0.412100  0   43.17300000   28.44100000   56.69500000 L
 C-CT--0.412100  0   44.39400000   30.62600000   56.86000000 L
 H-H-0.271900     0   41.57900000   30.31600000   60.18900000 L